114
Lattice="13.675 0.0 0.0 -6.837499999999998 11.8428973967522 0.0 0.0 0.0 14.767" Properties=species:S:1:pos:R:3:spacegroup_kinds:I:1 spacegroup="R -3 m" unit_cell=conventional pbc="T T T"
O       11.66477500       1.16060394       1.81191090        0
O        4.82727500       5.10823641       6.73424423        0
O       -2.01022500       9.05586888      11.65657757        0
O        6.83750000       9.52168951       1.81191090        0
O        6.83750000       1.62642458       6.73424423        0
O        0.00000000       5.57405704      11.65657757        0
O        2.01022500       1.16060394       1.81191090        0
O        8.84772500       5.10823641       6.73424423        0
O        2.01022500       9.05586888      11.65657757        0
O       -4.82727500      10.68229345      12.95508910        0
O        8.84772500       2.78702852       3.11042243        0
O        2.01022500       6.73466099       8.03275577        0
O        0.00000000       2.32120789      12.95508910        0
O        6.83750000       6.26884036       3.11042243        0
O        0.00000000      10.21647282       8.03275577        0
O        4.82727500      10.68229345      12.95508910        0
O        4.82727500       2.78702852       3.11042243        0
O       -2.01022500       6.73466099       8.03275577        0
O       11.23606375       3.67248248       2.46165890        1
O        4.39856375       7.62011495       7.38399223        1
O       -2.43893625      11.56774741      12.30632557        1
O        4.87650500       7.89447540       2.46165890        1
O       -1.96099500      11.84210787       7.38399223        1
O       -1.96099500       3.94684294      12.30632557        1
O        4.39993125       0.27593951       2.46165890        1
O       -2.43756875       4.22357197       7.38399223        1
O        4.39993125       8.17120444      12.30632557        1
O        9.27506875       0.27593951       2.46165890        1
O        2.43756875       4.22357197       7.38399223        1
O       -4.39993125       8.17120444      12.30632557        1
O        2.43893625       3.67248248       2.46165890        1
O       -4.39856375       7.62011495       7.38399223        1
O        2.43893625      11.56774741      12.30632557        1
O        8.79849500       7.89447540       2.46165890        1
O        1.96099500      11.84210787       7.38399223        1
O        1.96099500       3.94684294      12.30632557        1
O        0.00068375       2.84821682       1.94186050        2
O        6.83818375       6.79584929       6.86419383        2
O        0.00068375      10.74348176      11.78652717        2
O        4.37053000      10.41938113       1.94186050        2
O        4.37053000       2.52411620       6.86419383        2
O       -2.46697000       6.47174866      11.78652717        2
O       -4.37121375      10.41819684       1.94186050        2
O        9.30378625       2.52293191       6.86419383        2
O        2.46628625       6.47056437      11.78652717        2
O        6.83681625       8.99468057      12.82513950        2
O        6.83681625       1.09941564       2.98047283        2
O       -0.00068375       5.04704811       7.90280617        2
O        2.46697000       1.42351627      12.82513950        2
O        9.30447000       5.37114873       2.98047283        2
O        2.46697000       9.31878120       7.90280617        2
O       11.20871375       1.42470056      12.82513950        2
O        4.37121375       5.37233302       2.98047283        2
O       -2.46628625       9.31996549       7.90280617        2
O       -1.76202375       3.05191466       0.00000000        3
O        5.07547625       6.99954712       4.92233333        3
O       -1.76202375      10.94717959       9.84466667        3
O        5.07547625       8.79098274       0.00000000        3
O        5.07547625       0.89571781       4.92233333        3
O       -1.76202375       4.84335027       9.84466667        3
O        3.52404750       0.00000000       0.00000000        3
O       10.36154750       3.94763247       4.92233333        3
O        3.52404750       7.89526493       9.84466667        3
O       10.15095250       0.00000000       0.00000000        3
O        3.31345250       3.94763247       4.92233333        3
O       -3.52404750       7.89526493       9.84466667        3
O        1.76202375       3.05191466       0.00000000        3
O        8.59952375       6.99954712       4.92233333        3
O        1.76202375      10.94717959       9.84466667        3
O       -5.07547625       8.79098274       0.00000000        3
O        8.59952375       0.89571781       4.92233333        3
O        1.76202375       4.84335027       9.84466667        3
Si      12.12288750       2.68123197       1.55201170        4
Si       5.28538750       6.62886444       6.47434503        4
Si      -1.55211250      10.57649690      11.39667837        4
Si       5.29154125       9.15811256       1.55201170        4
Si       5.29154125       1.26284763       6.47434503        4
Si      -1.54595875       5.21048009      11.39667837        4
Si       3.09807125       0.00355287       1.55201170        4
Si       9.93557125       3.95118533       6.47434503        4
Si       3.09807125       7.89881780      11.39667837        4
Al      10.57692875       0.00355287       1.55201170        4
Si       3.73942875       3.95118533       6.47434503        4
Al      -3.09807125       7.89881780      11.39667837        4
Si       1.55211250       2.68123197       1.55201170        4
Si       8.38961250       6.62886444       6.47434503        4
Al       1.55211250      10.57649690      11.39667837        4
Si       8.38345875       9.15811256       1.55201170        4
Si       8.38345875       1.26284763       6.47434503        4
Si       1.54595875       5.21048009      11.39667837        4
Si      -5.28538750       9.16166543      13.21498830        4
Si       8.38961250       1.26640049       3.37032163        4
Si       1.55211250       5.21403296       8.29265497        4
Si       1.54595875       2.68478484      13.21498830        4
Al       8.38345875       6.63241731       3.37032163        4
Si       1.54595875      10.58004977       8.29265497        4
Si       3.73942875      11.83934453      13.21498830        4
Si       3.73942875       3.94407960       3.37032163        4
Si      -3.09807125       7.89171206       8.29265497        4
Al      -3.73942875      11.83934453      13.21498830        4
Si       9.93557125       3.94407960       3.37032163        4
Si       3.09807125       7.89171206       8.29265497        4
Si       5.28538750       9.16166543      13.21498830        4
Si       5.28538750       1.26640049       3.37032163        4
Si      -1.55211250       5.21403296       8.29265497        4
Al      -1.54595875       2.68478484      13.21498830        4
Si       5.29154125       6.63241731       3.37032163        4
Si      -1.54595875      10.58004977       8.29265497        4
H       11.24526664       0.01649229       3.96098597        0
H       -4.77892893       6.09547969      10.98111958        0
H        0.17986327       9.04090260       9.97932796        0
H        8.03746783       6.06074872       0.96127923        0
H       -5.75554170      12.25919446      14.63238542        0
H       -0.10481655       4.63459409      13.82437574        0
