216
Lattice="13.210369331116162 1.5326432733008784e-19 0.0 -6.605184665559276 11.440515434126418 0.0 0.0 0.0 30.581999190705414" Properties=species:S:1:pos:R:3:spacegroup_kinds:I:1:mace_forces:R:3:forces:R:3 spacegroup="P 63/m m c" unit_cell=conventional initial_spacegroup="Cc (9)" final_spacegroup="Cc (9)" model_path=/mnt/87bd3caf-192d-48ed-9f63-c5afcf32b9ec/ML/janus_work/models/mace-mp-0b3-medium.model arch=mace mace_energy=-1700.2483704202455 mace_stress="0.0014156291161999265 0.00024884151809845734 -0.00167462263345155 8.22091940243976e-06 -4.745323833653646e-06 0.001010428162226176" energy=-1700.2483704202455 free_energy=-1700.2483704202455 stress="0.0014156291161999265 0.001010428162226176 -4.745323833653646e-06 0.001010428162226176 0.00024884151809845734 8.22091940243976e-06 -4.745323833653646e-06 8.22091940243976e-06 -0.00167462263345155" pbc="T T T"
O        0.10180240       5.38194171       3.82455672        3       0.00028652      -0.00044800      -0.00011508       0.00028652      -0.00044800      -0.00011508
O        2.08498857       8.79264501       3.82715953        3       0.00014414       0.00010260       0.00000633       0.00014414       0.00010260       0.00000633
O       -2.10791509       8.89872328       3.83753610        3      -0.00023431       0.00019957      -0.00013027      -0.00023431       0.00019957      -0.00013027
O        6.55780647       6.27486967      19.12853570        3      -0.00005776       0.00030127      -0.00013014      -0.00005776       0.00030127      -0.00013014
O        4.55322113       2.59066939      19.11815913        3      -0.00016379      -0.00006911       0.00000632      -0.00016379      -0.00006911       0.00000632
O        8.49856993       2.60280756      19.11555631        3       0.00024029      -0.00048933      -0.00011502       0.00024029      -0.00048933      -0.00011502
O        6.62533029       6.19612201      26.74949954        3       0.00059220      -0.00024788       0.00000865       0.00059220      -0.00024788       0.00000865
O        4.52477350       2.59561928      26.75132802        3      -0.00028884       0.00055934      -0.00020513      -0.00028884       0.00055934      -0.00020513
O        8.67213048       2.62525304      26.76181439        3       0.00004232      -0.00056022      -0.00006691       0.00004232      -0.00056022      -0.00006691
O       -0.00441640       5.24285665      11.47081480        3       0.00046429      -0.00031677      -0.00006701       0.00046429      -0.00031677      -0.00006701
O        2.09492568       8.81975628      11.46032843        3      -0.00033978       0.00052956      -0.00020529      -0.00033978       0.00052956      -0.00020529
O       -2.07347954       8.80087210      11.45849995        3      -0.00008130      -0.00063669       0.00000868      -0.00008130      -0.00063669       0.00000868
O       -1.92698720       3.97065736       5.25825231        4      -0.00009517      -0.00026895       0.00013070      -0.00009517      -0.00026895       0.00013070
O        4.16689638       7.77632097       5.15488974        4      -0.00002502      -0.00035199       0.00018849      -0.00002502      -0.00035199       0.00018849
O       -2.13897488      11.19431456       5.17370267        4       0.00037952      -0.00000861      -0.00055849       0.00037952      -0.00000861      -0.00055849
O        2.17403255      11.11265288       5.16096574        4       0.00027426      -0.00029250       0.00044187       0.00027426      -0.00029250       0.00044187
O       -4.16836731       7.86378642       5.15266344        4       0.00052304       0.00008584      -0.00001675       0.00052304       0.00008584      -0.00001675
O        1.95815545       3.98723308       5.16973279        4       0.00029227      -0.00041659      -0.00003780       0.00029227      -0.00041659      -0.00003780
O        8.48431413       7.54180528      20.44366311        4      -0.00033134      -0.00041882      -0.00002379      -0.00033134      -0.00041882      -0.00002379
O        2.49951335       3.67355902      20.45196535        4       0.00011762      -0.00038305       0.00044039       0.00011762      -0.00038305       0.00044039
O        8.77824641       0.29780421      20.46073232        4       0.00022107      -0.00046524      -0.00003070       0.00022107      -0.00046524      -0.00003070
O        4.39242971       0.27952241      20.44588925        4       0.00030908      -0.00015880       0.00019735       0.00030908      -0.00015880       0.00019735
O       10.73517264       3.65414869      20.54925175        4       0.00029654      -0.00006723       0.00014665       0.00029654      -0.00006723       0.00014665
O        4.58529596       7.44956400      20.46470240        4      -0.00017995      -0.00034721      -0.00057323      -0.00017995      -0.00034721      -0.00057323
O        8.56167988       7.46501944      25.42364032        4      -0.00043679      -0.00031478      -0.00025449      -0.00043679      -0.00031478      -0.00025449
O        2.49502371       3.70656141      25.42314463        4      -0.00008699      -0.00044686      -0.00009244      -0.00008699      -0.00044686      -0.00009244
O        8.77608327       0.30672660      25.42032224        4       0.00021847       0.00000370       0.00016491       0.00021847       0.00000370       0.00016491
O        4.43986112       0.27017818      25.42937320        4      -0.00016490      -0.00034960      -0.00007801      -0.00016490      -0.00034960      -0.00007801
O       10.74410546       3.66002159      25.42065606        4       0.00033548       0.00072573      -0.00010575       0.00033548       0.00072573      -0.00010575
O        4.64082325       7.42814195      25.43419075        4      -0.00017330      -0.00002451       0.00004842      -0.00017330      -0.00002451       0.00004842
O       -1.93653974       3.96585797      10.12965647        4      -0.00079613       0.00007139      -0.00010692      -0.00079613       0.00007139      -0.00010692
O        4.15127293       7.73057200      10.13837362        4       0.00038629      -0.00003147      -0.00007946       0.00038629      -0.00003147      -0.00007946
O       -2.14818660      11.13551559      10.14319114        4       0.00010909       0.00013731       0.00004998       0.00010909       0.00013731       0.00004998
O        2.14769645      11.13304221      10.13214505        4       0.00043192      -0.00014735      -0.00009436       0.00043192      -0.00014735      -0.00009436
O       -4.14055177       7.75839290      10.13264069        4       0.00049374       0.00021914      -0.00025066       0.00049374       0.00021914      -0.00025066
O        1.95151001       3.99356769      10.12932266        4      -0.00011226      -0.00018851       0.00016346      -0.00011226      -0.00018851       0.00016346
O       -2.55821113       6.28847931       3.82523832        5       0.00011891       0.00019791       0.00029873       0.00011891       0.00019791       0.00029873
O        2.62504731       6.14645762       3.82471002        5      -0.00030417      -0.00002821      -0.00002453      -0.00030417      -0.00002821      -0.00002453
O        0.01203876      10.47314698       3.81124999        5      -0.00054993      -0.00012073      -0.00012246      -0.00054993      -0.00012073      -0.00012246
O        9.04349366       5.35971289      19.11623791        5      -0.00040074       0.00027042       0.00029878      -0.00040074       0.00027042       0.00029878
O        4.13433827       5.22614704      19.10224959        5       0.00041546       0.00047695      -0.00012224       0.00041546       0.00047695      -0.00012224
O        6.57485731       0.79987116      19.11570961        5       0.00016868       0.00024861      -0.00002454       0.00016868       0.00024861      -0.00002454
O        9.09739446       5.24186693      26.75702858        5       0.00015655       0.00037452       0.00007056       0.00015655       0.00037452       0.00007056
O        4.17733968       5.21093818      26.77776664        5      -0.00018360      -0.00017120       0.00022584      -0.00018360      -0.00017120       0.00022584
O        6.60862501       0.97869065      26.74661483        5       0.00025902       0.00025753      -0.00042023       0.00025902       0.00025753      -0.00042023
O       -2.48310249       6.18287419      11.46602899        5      -0.00040278       0.00005207       0.00007055      -0.00040278       0.00005207       0.00007055
O        2.45330121       6.20662365      11.45561524        5      -0.00035415      -0.00009837      -0.00042038      -0.00035415      -0.00009837      -0.00042038
O        0.00371003      10.42830224      11.48676705        5       0.00023605       0.00007341       0.00022577       0.00023605       0.00007341       0.00022577
O       -1.92964117       3.96261653       2.40293954        6      -0.00015313      -0.00019261      -0.00009576      -0.00015313      -0.00019261      -0.00009576
O        4.15955776       7.77820611       2.48685291        6       0.00017658       0.00000823      -0.00028163       0.00017658       0.00000823      -0.00028163
O       -2.17061590      11.19499351       2.50264665        6       0.00035132      -0.00040339       0.00036548       0.00035132      -0.00040339       0.00036548
O        2.18950872      11.10510441       2.48183459        6       0.00076799      -0.00005568      -0.00016284       0.00076799      -0.00005568      -0.00016284
O       -4.15279457       7.87270673       2.49087632        6       0.00000732      -0.00008977       0.00055647       0.00000732      -0.00008977       0.00055647
O        1.96354119       3.96871983       2.50693580        6       0.00047066      -0.00027262      -0.00002070       0.00047066      -0.00027262      -0.00002070
O        8.46880255       7.53277905      17.78187584        6       0.00007835      -0.00006065       0.00056414       0.00007835      -0.00006065       0.00056414
O        2.49831243       3.65638203      17.77283417        6      -0.00033443      -0.00069229      -0.00016146      -0.00033443      -0.00069229      -0.00016146
O        8.79158648       0.28388340      17.79793547        6       0.00000705      -0.00054761      -0.00002775       0.00000705      -0.00054761      -0.00002775
O        4.39446645       0.28682041      17.77785259        6      -0.00010367      -0.00015328      -0.00029051      -0.00010367      -0.00015328      -0.00029051
O       10.74346319       3.65242668      17.69393929        6       0.00025955       0.00002098      -0.00011226       0.00025955       0.00002098      -0.00011226
O        4.60052849       7.47730541      17.79364610        6       0.00017589      -0.00052079       0.00038101       0.00017589      -0.00052079       0.00038101
O        8.55833668       7.46759961      28.08692876        6       0.00020409      -0.00010868       0.00008466       0.00020409      -0.00010868       0.00008466
O        2.47942566       3.68331360      28.08743893        6       0.00006631      -0.00000062       0.00045670       0.00006631      -0.00000062       0.00045670
O        8.76847040       0.28649443      28.07846704        6       0.00021544       0.00017747      -0.00021054       0.00021544       0.00017747      -0.00021054
O        4.44999639       0.28291552      28.08574908        6      -0.00030619      -0.00053578       0.00019359      -0.00030619      -0.00053578       0.00019359
O       10.75516406       3.65742706      28.07562286        6       0.00013384       0.00010398       0.00018035       0.00013384       0.00010398       0.00018035
O        4.67104032       7.43686766      28.09062970        6      -0.00033198      -0.00042436      -0.00026190      -0.00033198      -0.00042436      -0.00026190
O       -1.93982211       3.95498366      12.78462329        6      -0.00015695      -0.00006227       0.00017851      -0.00015695      -0.00006227       0.00017851
O        4.13517443       7.72816326      12.79474947        6       0.00061853      -0.00000174       0.00019546       0.00061853      -0.00000174       0.00019546
O       -2.17085182      11.11370969      12.79963012        6       0.00053429       0.00007491      -0.00026291       0.00053429       0.00007491      -0.00026291
O        2.17562869      11.13492663      12.79643934        6      -0.00003342      -0.00005821       0.00045546      -0.00003342      -0.00005821       0.00045546
O       -4.14111462       7.76257825      12.79592914        6      -0.00001015      -0.00022961       0.00008787      -0.00001015      -0.00022961       0.00008787
O        1.97283801       3.99004452      12.78746746        6      -0.00026143      -0.00009657      -0.00021208      -0.00026143      -0.00009657      -0.00021208
O        0.02269501       2.22214119       5.89147897        7      -0.00021020       0.00024798       0.00031857      -0.00021020       0.00024798       0.00031857
O        4.57489138      10.28393442       5.95435888        7      -0.00038424      -0.00000809      -0.00032009      -0.00038424      -0.00000809      -0.00032009
O       -4.60654543      10.37377352       5.91368736        7      -0.00026274       0.00030568       0.00001251      -0.00026274       0.00030568       0.00001251
O        6.52969051       9.17627215      21.20468699        7      -0.00011921       0.00037773       0.00000861      -0.00011921       0.00037773       0.00000861
O        2.01677514       1.17999513      21.24535847        7       0.00020288       0.00032079      -0.00031955       0.00020288       0.00032079      -0.00031955
O       11.27459113       1.09141621      21.18247856        7      -0.00011218       0.00029899       0.00031922      -0.00011218       0.00029899       0.00031922
O        6.57383967       9.12728906      24.74696650        7       0.00018125      -0.00037164       0.00020346       0.00018125      -0.00037164       0.00020346
O        2.04016513       1.17692332      24.69142365        7      -0.00032738       0.00042270       0.00003236      -0.00032738       0.00042270       0.00003236
O       11.24315455       1.10906215      24.80542034        7      -0.00022620      -0.00032825       0.00031896      -0.00022620      -0.00032825       0.00031896
O        0.02313139       2.25818905       9.51442075        7       0.00039767       0.00003204       0.00031852       0.00039767       0.00003204       0.00031852
O        4.56585661      10.26214226       9.40042406        7      -0.00020262       0.00049530       0.00003203      -0.00020262       0.00049530       0.00003203
O       -4.58619937      10.31104779       9.45596689        7       0.00023215      -0.00034003       0.00020501       0.00023215      -0.00034003       0.00020501
O       11.42517438       3.00063092       7.69051643        8       0.00011398      -0.00001578      -0.00029059       0.00011398      -0.00001578      -0.00029059
O        4.83041293       8.24304636       7.65919538        8      -0.00004544      -0.00004462      -0.00007387      -0.00004544      -0.00004462      -0.00007387
O        3.66969798       0.02485236       7.66781195        8       0.00023856       0.00048931       0.00009699       0.00023856       0.00048931       0.00009699
O        9.54447117       0.06169543       7.66502162        8       0.00048535       0.00034493      -0.00023581       0.00048535       0.00034493      -0.00023581
O        8.39595449       8.35183363       7.65742503        8       0.00043578      -0.00002613       0.00012467       0.00043578      -0.00002613       0.00012467
O        1.78603070       3.12975153       7.66515207        8      -0.00046320       0.00017965      -0.00012439      -0.00046320       0.00017965      -0.00012439
O       -4.82569267       8.34532239      22.94842495        8      -0.00019554      -0.00039217       0.00008994      -0.00019554      -0.00039217       0.00008994
O        1.77951927       3.20560865      22.95602115        8      -0.00054139      -0.00024803      -0.00022932      -0.00054139      -0.00024803      -0.00022932
O        3.00172498      11.45864325      22.95615164        8       0.00007653       0.00049049      -0.00012231       0.00007653       0.00049049      -0.00012231
O       -2.94870935      11.37877831      22.95019500        8       0.00006056       0.00001619      -0.00007573       0.00006056       0.00001619      -0.00007573
O       -1.70602513       3.04633965      22.98151589        8      -0.00004270      -0.00010723      -0.00027647      -0.00004270      -0.00010723      -0.00027647
O        4.74881290       8.27488995      22.95881172        8      -0.00054226       0.00003732       0.00007845      -0.00054226       0.00003732       0.00007845
O       10.72645737       1.41046963       5.68482032        9       0.00013189       0.00009155       0.00026250       0.00013189       0.00009155       0.00026250
O        6.60359939       8.65139822       5.71063724        9      -0.00025007       0.00067663      -0.00050814      -0.00025007       0.00067663      -0.00050814
O        2.56323512       1.49563756       5.72155189        9      -0.00014335       0.00002717       0.00016719      -0.00014335       0.00002717       0.00016719
O       -4.18894546      10.04733007      21.00163686        9      -0.00048263       0.00051708      -0.00051034      -0.00048263       0.00051708      -0.00051034
O        0.02045338       2.85636568      20.97581991        9      -0.00013852      -0.00006875       0.00026304      -0.00013852      -0.00006875       0.00026304
O        4.02830685       9.96850770      21.01255149        9       0.00006206       0.00011398       0.00016715       0.00006206       0.00011398       0.00016715
O       -4.15049168      10.02044432      24.91958348        9      -0.00017120      -0.00020376      -0.00001626      -0.00017120      -0.00020376      -0.00001626
O        0.02853592       2.84870797      24.98027414        9       0.00012582      -0.00028222       0.00001419       0.00012582      -0.00028222       0.00001419
O        4.07395999       9.97269792      24.90943516        9      -0.00034411       0.00007573      -0.00004950      -0.00034411       0.00007573      -0.00004950
O       10.72904789       1.39964115       9.68927455        9       0.00018202      -0.00024934       0.00001353       0.00018202      -0.00024934       0.00001353
O        6.60765588       8.60465340       9.62858388        9       0.00025643       0.00004632      -0.00001535       0.00025643       0.00004632      -0.00001535
O        2.53677961       1.45819608       9.61843556        9       0.00010455       0.00033937      -0.00004900       0.00010455       0.00033937      -0.00004900
O        0.02256891       2.22808776       1.73640437       10      -0.00062172      -0.00007602       0.00002349      -0.00062172      -0.00007602       0.00002349
O        4.60767667      10.29093052       1.71903586       10      -0.00073167       0.00000482       0.00031854      -0.00073167       0.00000482       0.00031854
O       -4.63169415      10.37493146       1.72873291       10      -0.00031686       0.00027122      -0.00010489      -0.00031686       0.00027122      -0.00010489
O        6.54126208       9.19863055      17.01973247       10      -0.00006305       0.00040732      -0.00010104      -0.00006305       0.00040732      -0.00010104
O        1.99432370       1.15510029      17.01003546       10       0.00036525       0.00062844       0.00031800       0.00036525       0.00062844       0.00031800
O       11.26950430       1.09449869      17.02740397       10       0.00037433       0.00049370       0.00002286       0.00037433       0.00049370       0.00002286
O        6.59853659       9.15533218      28.77305621       10       0.00021162       0.00011774       0.00042376       0.00021162       0.00011774       0.00042376
O        2.03722548       1.16222889      28.83859584       10      -0.00005898       0.00037546       0.00024734      -0.00005898       0.00037546       0.00024734
O       11.22265057       1.10185448      28.71827710       10      -0.00019562      -0.00003403      -0.00028461      -0.00019562      -0.00003403      -0.00028461
O        0.03962540       2.27234219      13.42727751       10       0.00012797       0.00015217      -0.00028520       0.00012797       0.00015217      -0.00028520
O        4.58005216      10.25734090      13.54759624       10      -0.00029374       0.00023523       0.00024782      -0.00029374       0.00023523       0.00024782
O       -4.62283386      10.30368125      13.48205661       10      -0.00020973      -0.00012867       0.00042456      -0.00020973      -0.00012867       0.00042456
O       -1.78349224       3.03931431      -0.04882752       11       0.00030096       0.00037096       0.00024977       0.00030096       0.00037096       0.00024977
O        4.80740952       8.27074906      -0.01580882       11      -0.00007562       0.00004769       0.00034072      -0.00007562       0.00004769       0.00034072
O        3.69420375      -0.03518051      -0.01201802       11       0.00015088       0.00013726      -0.00047702       0.00015088       0.00013726      -0.00047702
O        9.56700661       0.00503642      -0.02576339       11       0.00021247       0.00022953       0.00062149       0.00021247       0.00022953       0.00062149
O       -4.79865351       8.34636904      -0.01557866       11      -0.00004184       0.00039985      -0.00009986      -0.00004184       0.00039985      -0.00009986
O        1.77888049       3.19892136      -0.01485709       11      -0.00012595       0.00040701      -0.00022710      -0.00012595       0.00040701      -0.00022710
O       -4.82884085       8.32894038      15.27542062       11      -0.00032571       0.00023446      -0.00006638      -0.00032571       0.00023446      -0.00006638
O        1.81731969       3.15776288      15.26523627       11      -0.00030505      -0.00006944       0.00061534      -0.00030505      -0.00006944       0.00061534
O        9.55058192       0.05890499      15.27614253       11      -0.00028904       0.00031214      -0.00022916      -0.00028904       0.00031214      -0.00022916
O        3.64398579      -0.02796423      15.27519076       11      -0.00000418       0.00008842       0.00034234      -0.00000418       0.00008842       0.00034234
O       -1.74037729       3.06420675      15.24217220       11      -0.00047106      -0.00007574       0.00023623      -0.00047106      -0.00007574       0.00023623
O        4.78855000       8.22365089      15.27898141       11      -0.00019350      -0.00006270      -0.00045945      -0.00019350      -0.00006270      -0.00045945
O       10.72231016       1.41531329       1.92735808       12       0.00002332       0.00000215      -0.00055099       0.00002332       0.00000215      -0.00055099
O        6.60684055       8.61443135       1.92254876       12      -0.00016531       0.00016283       0.00004055      -0.00016531       0.00016283       0.00004055
O        2.56257489       1.49775687       1.87074614       12      -0.00018040      -0.00028320       0.00024432      -0.00018040      -0.00028320       0.00024432
O       -4.15855180      10.02603971      17.21354833       12      -0.00007969       0.00018713       0.00004263      -0.00007969       0.00018713       0.00004263
O        0.01833226       2.86237910      17.21835768       12      -0.00000662      -0.00001947      -0.00055154      -0.00000662      -0.00001947      -0.00055154
O        4.02680159       9.97013914      17.16174573       12       0.00035003      -0.00000990       0.00024445       0.00035003      -0.00000990       0.00024445
O       -4.11077353      10.01613837      28.60595710       12      -0.00050084       0.00002767       0.00017937      -0.00050084       0.00002767       0.00017937
O        0.01626683       2.82941213      28.56774806       12       0.00057246       0.00015734      -0.00018680       0.00057246       0.00015734      -0.00018680
O        4.07690749       9.96421811      28.62851086       12       0.00001838       0.00030649      -0.00045222       0.00001838       0.00030649      -0.00045222
O       10.75189313       1.40061857      13.27674847       12      -0.00042209      -0.00041653      -0.00018726      -0.00042209      -0.00041653      -0.00018726
O        6.59152578       8.56810350      13.31495749       12       0.00023026       0.00044754       0.00018080       0.00023026       0.00044754       0.00018080
O        2.54264957       1.45140361      13.33751127       12      -0.00027417       0.00013644      -0.00045249      -0.00027417       0.00013644      -0.00045249
Al      -1.57234155       4.89427069       3.82733999        0       0.00006778      -0.00025570       0.00003151       0.00006778      -0.00025570       0.00003151
Si       3.23521634       7.62609941       3.82334215        0       0.00040797      -0.00026676      -0.00021484       0.00040797      -0.00026676      -0.00021484
Si      -1.60472942      10.42882191       3.83074395        0      -0.00034431      -0.00046671       0.00000561      -0.00034431      -0.00046671       0.00000561
Si       1.62314353      10.36098344       3.82020439        0      -0.00044772       0.00048980      -0.00015792      -0.00044772       0.00048980      -0.00015792
Si      -3.22437519       7.69944922       3.82645200        0       0.00074670       0.00033376       0.00014022       0.00074670       0.00033376       0.00014022
Si       1.60338140       4.87733774       3.83092255        0       0.00037371      -0.00042010       0.00014460       0.00037371      -0.00042010       0.00014460
Si       8.15463687       6.64211748      19.11745160        0      -0.00050915      -0.00069678       0.00013954      -0.00050915      -0.00069678       0.00013954
Si       3.42592285       3.77480854      19.11120399        0      -0.00021643       0.00059575      -0.00015767      -0.00021643       0.00059575      -0.00015767
Si       8.18478022       1.05009968      19.12192215        0       0.00017993      -0.00051612       0.00014445       0.00017993      -0.00051612       0.00014445
Si       4.98836527       1.01127013      19.11434174        0       0.00003498      -0.00048246      -0.00021480       0.00003498      -0.00048246      -0.00021480
Al       9.75797709       3.80882367      19.11833958        0       0.00021503      -0.00025046       0.00003169       0.00021503      -0.00025046       0.00003169
Si       4.98110976       6.60414759      19.12174355        0       0.00053109       0.00004487       0.00000491       0.00053109       0.00004487       0.00000491
Si       8.20810277       6.59134847      26.75548094        0       0.00035052       0.00038387      -0.00000201       0.00035052       0.00038387      -0.00000201
Si       3.41653799       3.78995652      26.76223430        0      -0.00091470       0.00032366       0.00017669      -0.00091470       0.00032366       0.00017669
Si       8.21931041       1.05763294      26.75234349        0       0.00027777      -0.00039488      -0.00015485       0.00027777      -0.00039488      -0.00015485
Si       4.99945511       1.03804646      26.75289670        0       0.00000012       0.00019715       0.00021578       0.00000012       0.00019715       0.00021578
Si       9.81749155       3.79064101      26.75297917        0      -0.00043715      -0.00011179       0.00005000      -0.00043715      -0.00011179       0.00005000
Si       5.03847447       6.57200114      26.76146543        0       0.00053156      -0.00059809      -0.00035595       0.00053156      -0.00059809      -0.00035595
Si      -1.58635252       4.83363886      11.46197956        0       0.00031511       0.00032214       0.00005137       0.00031511       0.00032214       0.00005137
Si       3.20648251       7.62988351      11.46189710        0      -0.00017122       0.00010026       0.00021655      -0.00017122       0.00010026       0.00021655
Si      -1.60557253      10.36306911      11.47046584        0       0.00025398      -0.00075880      -0.00035580       0.00025398      -0.00075880      -0.00035580
Si       1.61471702      10.37668500      11.47123469        0       0.00017930       0.00095376       0.00017837       0.00017930       0.00095376       0.00017837
Si      -3.20714193       7.62776415      11.46448137        0      -0.00050810      -0.00011205      -0.00000480      -0.00050810      -0.00011205      -0.00000480
Si       1.57959246       4.85120027      11.46134388        0       0.00020387      -0.00043625      -0.00015305       0.00020387      -0.00043625      -0.00015305
Si      11.66276656       2.69130254       6.09777409        1       0.00002783      -0.00026594      -0.00010742       0.00002783      -0.00026594      -0.00010742
Si       5.03941994       8.73729729       6.11759777        1      -0.00032077       0.00020097      -0.00005717      -0.00032077       0.00020097      -0.00005717
Si       3.17366615       0.04936731       6.11169139        1       0.00062382       0.00000679      -0.00028789       0.00062382       0.00000679      -0.00028789
Si      10.05476175       0.01165540       6.11172891        1       0.00041786       0.00022494       0.00010946       0.00041786       0.00022494       0.00010946
Si       8.16965583       8.81001899       6.10577273        1      -0.00002635      -0.00022874      -0.00003738      -0.00002635      -0.00022874      -0.00003738
Si       1.55805087       2.72519188       6.09441259        1      -0.00030408      -0.00006982       0.00003158      -0.00030408      -0.00006982       0.00003158
Si      -5.10934355       8.77039508      21.39677202        1       0.00021614      -0.00005337      -0.00000425       0.00021614      -0.00005337      -0.00000425
Si       1.56770995       2.73866400      21.40272855        1      -0.00040690      -0.00024616       0.00010466      -0.00040690      -0.00024616       0.00010466
Si       3.46607390      11.45379959      21.38541220        1       0.00020545       0.00024442       0.00002934       0.00020545       0.00024442       0.00002934
Si      -3.48124685      11.44489815      21.40859735        1       0.00000031       0.00040462      -0.00005595       0.00000031       0.00040462      -0.00005595
Si      -1.55693484       2.68591445      21.38877385        1       0.00020142      -0.00014225      -0.00012514       0.00020142      -0.00014225      -0.00012514
Si       4.97559842       8.71672339      21.40269082        1      -0.00033648      -0.00051656      -0.00026986      -0.00033648      -0.00051656      -0.00026986
Si      -5.06650724       8.74023804      24.50471456        1       0.00004331      -0.00026421       0.00010853       0.00004331      -0.00026421       0.00010853
Si       1.57799382       2.73328257      24.50068488        1      -0.00009245       0.00032172      -0.00039646      -0.00009245       0.00032172      -0.00039646
Si       3.47853741      11.43623871      24.50643435        1      -0.00047319      -0.00009958      -0.00008076      -0.00047319      -0.00009958      -0.00008076
Si      -3.46208496      11.43278926      24.49344831        1      -0.00067503       0.00018129      -0.00011010      -0.00067503       0.00018129      -0.00011010
Si      -1.53002587       2.66535797      24.53309151        1      -0.00000010      -0.00022616      -0.00017138      -0.00000010      -0.00022616      -0.00017138
Si       5.01130110       8.70755532      24.50472924        1       0.00004213       0.00025739       0.00025301       0.00004213       0.00025739       0.00025301
Si      11.66711455       2.65772027       9.24209184        1       0.00019628      -0.00011475      -0.00016341       0.00019628      -0.00011475      -0.00016341
Si       5.04032586       8.71464816       9.20244871        1       0.00018219       0.00067419      -0.00010935       0.00018219       0.00067419      -0.00010935
Si       3.16375465       0.01386362       9.21372976        1      -0.00024174       0.00008959       0.00024165      -0.00024174       0.00008959       0.00024165
Si      10.05428028       0.00005855       9.20968524        1      -0.00023236       0.00024050      -0.00039163      -0.00023236       0.00024050      -0.00039163
Si       8.17435474       8.75784304       9.21371516        1       0.00021074      -0.00017404       0.00008752       0.00021074      -0.00017404       0.00008752
Si       1.56702738       2.70561760       9.21543473        1       0.00032302       0.00035871      -0.00007842       0.00032302       0.00035871      -0.00007842
Si      -1.54847753       2.70067208       1.53903045        2      -0.00055780      -0.00026885       0.00007233      -0.00055780      -0.00026885       0.00007233
Si       5.04152831       8.73685272       1.53014636        2      -0.00009298       0.00065529       0.00019464      -0.00009298       0.00065529       0.00019464
Si      -3.44094448      11.47672349       1.53244314        2       0.00082264      -0.00029431      -0.00009938       0.00082264      -0.00029431      -0.00009938
Si       3.46558383      11.43994273       1.53001236        2       0.00054684       0.00021819       0.00010031       0.00054684       0.00021819       0.00010031
Si      -5.03881054       8.80253224       1.53484531        2       0.00004504      -0.00024189       0.00015706       0.00004504      -0.00024189       0.00015706
Si       1.55728561       2.73897965       1.54345856        2      -0.00047276      -0.00005438      -0.00028312      -0.00047276      -0.00005438      -0.00028312
Si       8.10655801       8.76500369      16.82584522        2       0.00019215      -0.00012181       0.00012407       0.00019215      -0.00012181       0.00012407
Si       1.57029642       2.71868769      16.82101191        2      -0.00046550      -0.00036112       0.00010496      -0.00046550      -0.00036112       0.00010496
Si      10.05970063       0.02084078      16.83445814        2       0.00027631       0.00039814      -0.00028072       0.00027631       0.00039814      -0.00028072
Si       3.12326865       0.00233452      16.82114596        2      -0.00050757       0.00043435       0.00019379      -0.00050757       0.00043435       0.00019379
Si      11.64575761       2.69135677      16.83002988        2       0.00049665       0.00036346       0.00009042       0.00049665       0.00036346       0.00009042
Si       4.99170765       8.71830688      16.82344290        2      -0.00017472      -0.00083878      -0.00011765      -0.00017472      -0.00083878      -0.00011765
Si       8.16617431       8.74687448      29.01194189        2       0.00016686      -0.00020501      -0.00015363       0.00016686      -0.00020501      -0.00015363
Si       1.57157999       2.71891804      29.03024891        2       0.00029636      -0.00000221      -0.00000802       0.00029636      -0.00000221      -0.00000802
Si      10.06709170      -0.01548650      29.00710390        2      -0.00057192       0.00013972       0.00052963      -0.00057192       0.00013972       0.00052963
Si       3.16302734      -0.00191159      29.03241237        2      -0.00093850      -0.00000757      -0.00020340      -0.00093850      -0.00000757      -0.00020340
Si      11.66121497       2.65913004      28.98834566        2       0.00059424      -0.00001236       0.00020529       0.00059424      -0.00001236       0.00020529
Si       5.04133784       8.71509892      29.01864853        2      -0.00007180      -0.00022006      -0.00002896      -0.00007180      -0.00022006      -0.00002896
Si      -1.52829697       2.67117204      13.69734600        2      -0.00028814      -0.00052016       0.00021299      -0.00028814      -0.00052016       0.00021299
Si       5.02532650       8.70029757      13.74141287        2       0.00047367       0.00081308      -0.00021421       0.00047367       0.00081308      -0.00021421
Si      -3.46298132      11.43213823      13.72764893        2       0.00022666      -0.00004569      -0.00002839       0.00022666      -0.00004569      -0.00002839
Si       3.46474259      11.43894625      13.73924929        2      -0.00014778      -0.00025706      -0.00000573      -0.00014778      -0.00025706      -0.00000573
Si      -5.05291797       8.74183822      13.72094248        2       0.00009159      -0.00024157      -0.00017337       0.00009159      -0.00024157      -0.00017337
Si       1.58505051       2.71441503      13.71610426        2       0.00016529       0.00056544       0.00053400       0.00016529       0.00056544       0.00053400
