226
Lattice="13.199823698643469 -5.448795330982017e-26 0.0 -6.599911849319972 11.431382648496834 0.0 0.0 0.0 30.267542187493135" Properties=species:S:1:pos:R:3:spacegroup_kinds:I:1:mace_forces:R:3:forces:R:3 spacegroup="P 63/m m c" unit_cell=conventional occupancy="_JSON {\"0\": {\"Si\": 0.8736, \"Al\": 0.1264}, \"1\": {\"Si\": 0.8736, \"Al\": 0.1264}, \"2\": {\"Si\": 0.8736, \"Al\": 0.1264}, \"3\": {\"O\": 1.0}, \"4\": {\"O\": 1.0}, \"5\": {\"O\": 1.0}, \"6\": {\"O\": 1.0}, \"7\": {\"O\": 1.0}, \"8\": {\"O\": 1.0}, \"9\": {\"O\": 1.0}, \"10\": {\"O\": 1.0}, \"11\": {\"O\": 1.0}, \"12\": {\"O\": 1.0}, \"13\": {\"K\": 0.777}, \"14\": {\"K\": 0.495}, \"15\": {\"Al\": 0.1264, \"Si\": 0.8736}, \"16\": {\"Al\": 0.1264, \"Si\": 0.8736}, \"17\": {\"Al\": 0.1264, \"Si\": 0.8736}}" initial_spacegroup="P6_3/m (176)" final_spacegroup="P6_3/mmc (194)" model_path=/mnt/87bd3caf-192d-48ed-9f63-c5afcf32b9ec/ML/janus_work/models/mace-mp-0b3-medium.model arch=mace mace_stress="8.068553082895552e-05 8.068553069183307e-05 -0.00020157966303241618 1.8256626931547476e-14 -1.3528469991699321e-14 1.706339361973249e-14" mace_energy=-1738.7074235011282 energy=-1738.7074235011282 free_energy=-1738.7074235011282 stress="8.068553082895552e-05 1.706339361973249e-14 -1.3528469991699321e-14 1.706339361973249e-14 8.068553069183307e-05 1.8256626931547476e-14 -1.3528469991699321e-14 1.8256626931547476e-14 -0.00020157966303241618" pbc="T T T"
Si      -3.19694665       7.63038491      11.34870960        0       0.00033535       0.00001861      -0.00028639       0.00033535       0.00001861      -0.00028639
Si       1.59027800       4.84755318      11.34870960        0      -0.00018379       0.00028111      -0.00028639      -0.00018379       0.00028111      -0.00028639
Si       1.60666865      10.38482720      11.34870960        0      -0.00015155      -0.00029973      -0.00028639      -0.00015155      -0.00029973      -0.00028639
Si      -1.60666541      10.38482273      11.34871652        0       0.00011428      -0.00025900      -0.00037629       0.00011428      -0.00025900      -0.00037629
Si       3.19694115       7.63038434      11.34871652        0      -0.00028143       0.00003053      -0.00037629      -0.00028143       0.00003053      -0.00037629
Si      -1.59027575       4.84755822      11.34871652        0       0.00016716       0.00022846      -0.00037629       0.00016716       0.00022846      -0.00037629
Si       9.79685850       3.80099774      18.91883259        0      -0.00033535      -0.00001861       0.00028639      -0.00033535      -0.00001861       0.00028639
Si       5.00963385       6.58382947      18.91883259        0       0.00018379      -0.00028111       0.00028639       0.00018379      -0.00028111       0.00028639
Si       4.99324320       1.04655544      18.91883259        0       0.00015155       0.00029973       0.00028639       0.00015155       0.00029973       0.00028639
Si       8.20657726       1.04655992      18.91882567        0      -0.00011428       0.00025900       0.00037629      -0.00011428       0.00025900       0.00037629
Si       3.40297069       3.80099831      18.91882567        0       0.00028143      -0.00003053       0.00037629       0.00028143      -0.00003053       0.00037629
Si       8.19018760       6.58382442      18.91882567        0      -0.00016716      -0.00022846       0.00037629      -0.00016716      -0.00022846       0.00037629
Si       9.79685850       3.80099774      26.48248069        0      -0.00033535      -0.00001861      -0.00028639      -0.00033535      -0.00001861      -0.00028639
Si       5.00963385       6.58382947      26.48248069        0       0.00018379      -0.00028111      -0.00028639       0.00018379      -0.00028111      -0.00028639
Si       4.99324320       1.04655544      26.48248069        0       0.00015155       0.00029973      -0.00028639       0.00015155       0.00029973      -0.00028639
Si       8.20657726       1.04655992      26.48248761        0      -0.00011428       0.00025900      -0.00037629      -0.00011428       0.00025900      -0.00037629
Si       3.40297069       3.80099831      26.48248761        0       0.00028143      -0.00003053      -0.00037629       0.00028143      -0.00003053      -0.00037629
Si       8.19018760       6.58382442      26.48248761        0      -0.00016716      -0.00022846      -0.00037629      -0.00016716      -0.00022846      -0.00037629
Si      -3.19694665       7.63038491       3.78506150        0       0.00033535       0.00001861       0.00028639       0.00033535       0.00001861       0.00028639
Si       1.59027800       4.84755318       3.78506150        0      -0.00018379       0.00028111       0.00028639      -0.00018379       0.00028111       0.00028639
Si       1.60666865      10.38482720       3.78506150        0      -0.00015155      -0.00029973       0.00028639      -0.00015155      -0.00029973       0.00028639
Si      -1.60666541      10.38482273       3.78505457        0       0.00011428      -0.00025900       0.00037629       0.00011428      -0.00025900       0.00037629
Si       3.19694115       7.63038434       3.78505457        0      -0.00028143       0.00003053       0.00037629      -0.00028143       0.00003053       0.00037629
Si      -1.59027575       4.84755822       3.78505457        0       0.00016716       0.00022846       0.00037629       0.00016716       0.00022846       0.00037629
Si      -5.04556052       8.73209652       9.14139729        1       0.00058647       0.00027528       0.00003021       0.00058647       0.00027528       0.00003021
Si       1.56047470       2.69575080       9.14139729        1      -0.00053163       0.00037026       0.00003021      -0.00053163       0.00037026       0.00003021
Si       3.48508582      11.43491798       9.14139729        1      -0.00005484      -0.00064554       0.00003021      -0.00005484      -0.00064554       0.00003021
Si      -3.48508460      11.43492045       9.14140306        1       0.00009133      -0.00070165      -0.00008860       0.00009133      -0.00070165      -0.00008860
Si       5.04556205       8.73209422       9.14140306        1      -0.00065331       0.00027173      -0.00008860      -0.00065331       0.00027173      -0.00008860
Si      -1.56047745       2.69575063       9.14140306        1       0.00056198       0.00042992      -0.00008860       0.00056198       0.00042992      -0.00008860
Si      11.64547237       2.69928613      21.12614490        1      -0.00058647      -0.00027528      -0.00003021      -0.00058647      -0.00027528      -0.00003021
Si       5.03943715       8.73563185      21.12614490        1       0.00053163      -0.00037026      -0.00003021       0.00053163      -0.00037026      -0.00003021
Si       3.11482603      -0.00353533      21.12614490        1       0.00005484       0.00064554      -0.00003021       0.00005484       0.00064554      -0.00003021
Si      10.08499645      -0.00353780      21.12613912        1      -0.00009133       0.00070165       0.00008860      -0.00009133       0.00070165       0.00008860
Si       1.55434980       2.69928843      21.12613912        1       0.00065331      -0.00027173       0.00008860       0.00065331      -0.00027173       0.00008860
Si       8.16038930       8.73563202      21.12613912        1      -0.00056198      -0.00042992       0.00008860      -0.00056198      -0.00042992       0.00008860
Si      11.64547237       2.69928613      24.27516838        1      -0.00058647      -0.00027528       0.00003021      -0.00058647      -0.00027528       0.00003021
Si       5.03943715       8.73563185      24.27516838        1       0.00053163      -0.00037026       0.00003021       0.00053163      -0.00037026       0.00003021
Si       3.11482603      -0.00353533      24.27516838        1       0.00005484       0.00064554       0.00003021       0.00005484       0.00064554       0.00003021
Si      10.08499645      -0.00353780      24.27517416        1      -0.00009133       0.00070165      -0.00008860      -0.00009133       0.00070165      -0.00008860
Si       1.55434980       2.69928843      24.27517416        1       0.00065331      -0.00027173      -0.00008860       0.00065331      -0.00027173      -0.00008860
Si       8.16038930       8.73563202      24.27517416        1      -0.00056198      -0.00042992      -0.00008860      -0.00056198      -0.00042992      -0.00008860
Si      -5.04556052       8.73209652       5.99237381        1       0.00058647       0.00027528      -0.00003021       0.00058647       0.00027528      -0.00003021
Si       1.56047470       2.69575080       5.99237381        1      -0.00053163       0.00037026      -0.00003021      -0.00053163       0.00037026      -0.00003021
Si       3.48508582      11.43491798       5.99237381        1      -0.00005484      -0.00064554      -0.00003021      -0.00005484      -0.00064554      -0.00003021
Si      -3.48508460      11.43492045       5.99236803        1       0.00009133      -0.00070165       0.00008860       0.00009133      -0.00070165       0.00008860
Si       5.04556205       8.73209422       5.99236803        1      -0.00065331       0.00027173       0.00008860      -0.00065331       0.00027173       0.00008860
Si      -1.56047745       2.69575063       5.99236803        1       0.00056198       0.00042992       0.00008860       0.00056198       0.00042992       0.00008860
Si       8.16749725       8.71432604      13.56973160        2      -0.00080165      -0.00046780       0.00023310      -0.00080165      -0.00046780       0.00023310
Si       1.56924735       2.71609709      13.56973160        2       0.00080595      -0.00046035       0.00023310       0.00080595      -0.00046035       0.00023310
Si      10.06299095       0.00095952      13.56973160        2      -0.00000430       0.00092815       0.00023310      -0.00000430       0.00092815       0.00023310
Si       3.13683060       0.00095747      13.56973378        2       0.00002015       0.00093338       0.00022333       0.00002015       0.00093338       0.00022333
Si       5.03232575       8.71432893      13.56973378        2       0.00079825      -0.00048414       0.00022333       0.00079825      -0.00048414       0.00022333
Si      11.63057920       2.71609625      13.56973378        2      -0.00081841      -0.00044924       0.00022333      -0.00081841      -0.00044924       0.00022333
Si      -1.56758540       2.71705661      16.69781058        2       0.00080165       0.00046780      -0.00023310       0.00080165       0.00046780      -0.00023310
Si       5.03066450       8.71528556      16.69781058        2      -0.00080595       0.00046035      -0.00023310      -0.00080595       0.00046035      -0.00023310
Si      -3.46307910      11.43042313      16.69781058        2       0.00000430      -0.00092815      -0.00023310       0.00000430      -0.00092815      -0.00023310
Si       3.46308125      11.43042518      16.69780841        2      -0.00002015      -0.00093338      -0.00022333      -0.00002015      -0.00093338      -0.00022333
Si       1.56758610       2.71705372      16.69780841        2      -0.00079825       0.00048414      -0.00022333      -0.00079825       0.00048414      -0.00022333
Si      -5.03066736       8.71528640      16.69780841        2       0.00081841       0.00044924      -0.00022333       0.00081841       0.00044924      -0.00022333
Si      -1.56758540       2.71705661      28.70350270        2       0.00080165       0.00046780       0.00023310       0.00080165       0.00046780       0.00023310
Si       5.03066450       8.71528556      28.70350270        2      -0.00080595       0.00046035       0.00023310      -0.00080595       0.00046035       0.00023310
Si      -3.46307910      11.43042313      28.70350270        2       0.00000430      -0.00092815       0.00023310       0.00000430      -0.00092815       0.00023310
Si       3.46308125      11.43042518      28.70350487        2      -0.00002015      -0.00093338       0.00022333      -0.00002015      -0.00093338       0.00022333
Si       1.56758610       2.71705372      28.70350487        2      -0.00079825       0.00048414       0.00022333      -0.00079825       0.00048414       0.00022333
Si      -5.03066736       8.71528640      28.70350487        2       0.00081841       0.00044924       0.00022333       0.00081841       0.00044924       0.00022333
Si       8.16749725       8.71432604       1.56403949        2      -0.00080165      -0.00046780      -0.00023310      -0.00080165      -0.00046780      -0.00023310
Si       1.56924735       2.71609709       1.56403949        2       0.00080595      -0.00046035      -0.00023310       0.00080595      -0.00046035      -0.00023310
Si      10.06299095       0.00095952       1.56403949        2      -0.00000430       0.00092815      -0.00023310      -0.00000430       0.00092815      -0.00023310
Si       3.13683060       0.00095747       1.56403731        2       0.00002015       0.00093338      -0.00022333       0.00002015       0.00093338      -0.00022333
Si       5.03232575       8.71432893       1.56403731        2       0.00079825      -0.00048414      -0.00022333       0.00079825      -0.00048414      -0.00022333
Si      11.63057920       2.71609625       1.56403731        2      -0.00081841      -0.00044924      -0.00022333      -0.00081841      -0.00044924      -0.00022333
O       -2.12298811       8.84662775      11.35348547        3       0.00015710      -0.00008836      -0.00048388       0.00015710      -0.00008836      -0.00048388
O        0.00000154       5.16950714      11.35348547        3      -0.00000203       0.00018023      -0.00048388      -0.00000203       0.00018023      -0.00048388
O        2.12298657       8.84663041      11.35348547        3      -0.00015507      -0.00009187      -0.00048388      -0.00015507      -0.00009187      -0.00048388
O        8.72289996       2.58475490      18.91405671        3      -0.00015710       0.00008836       0.00048388      -0.00015710       0.00008836       0.00048388
O        6.59991031       6.26187551      18.91405671        3       0.00000203      -0.00018023       0.00048388       0.00000203      -0.00018023       0.00048388
O        4.47692528       2.58475224      18.91405671        3       0.00015507       0.00009187       0.00048388       0.00015507       0.00009187       0.00048388
O        8.72289996       2.58475490      26.48725657        3      -0.00015710       0.00008836      -0.00048388      -0.00015710       0.00008836      -0.00048388
O        6.59991031       6.26187551      26.48725657        3       0.00000203      -0.00018023      -0.00048388       0.00000203      -0.00018023      -0.00048388
O        4.47692528       2.58475224      26.48725657        3       0.00015507       0.00009187      -0.00048388       0.00015507       0.00009187      -0.00048388
O       -2.12298811       8.84662775       3.78028562        3       0.00015710      -0.00008836       0.00048388       0.00015710      -0.00008836       0.00048388
O        0.00000154       5.16950714       3.78028562        3      -0.00000203       0.00018023       0.00048388      -0.00000203       0.00018023       0.00048388
O        2.12298657       8.84663041       3.78028562        3      -0.00015507      -0.00009187       0.00048388      -0.00015507      -0.00009187       0.00048388
O       -4.08475575       7.70860794       9.95992295        4       0.00012596       0.00023117       0.00039103       0.00012596       0.00023117       0.00039103
O        1.96643942       4.03957643       9.95992295        4      -0.00026318      -0.00000650       0.00039103      -0.00026318      -0.00000650       0.00039103
O        2.11831633      11.11458093       9.95992295        4       0.00013722      -0.00022467       0.00039103       0.00013722      -0.00022467       0.00039103
O       -2.11831377      11.11457180       9.95992514        4      -0.00020559      -0.00016259       0.00037297      -0.00020559      -0.00016259       0.00037297
O        4.08474656       7.70861028       9.95992514        4      -0.00003802       0.00025934       0.00037297      -0.00003802       0.00025934       0.00037297
O       -1.96643280       4.03958321       9.95992514        4       0.00024361      -0.00009675       0.00037297       0.00024361      -0.00009675       0.00037297
O       10.68466760       3.72277471      20.30761924        4      -0.00012596      -0.00023117      -0.00039103      -0.00012596      -0.00023117      -0.00039103
O        4.63347243       7.39180622      20.30761924        4       0.00026318       0.00000650      -0.00039103       0.00026318       0.00000650      -0.00039103
O        4.48159552       0.31680172      20.30761924        4      -0.00013722       0.00022467      -0.00039103      -0.00013722       0.00022467      -0.00039103
O        8.71822562       0.31681085      20.30761704        4       0.00020559       0.00016259      -0.00037297       0.00020559       0.00016259      -0.00037297
O        2.51516529       3.72277236      20.30761704        4       0.00003802      -0.00025934      -0.00037297       0.00003802      -0.00025934      -0.00037297
O        8.56634465       7.39179943      20.30761704        4      -0.00024361       0.00009675      -0.00037297      -0.00024361       0.00009675      -0.00037297
O       10.68466760       3.72277471      25.09369404        4      -0.00012596      -0.00023117       0.00039103      -0.00012596      -0.00023117       0.00039103
O        4.63347243       7.39180622      25.09369404        4       0.00026318       0.00000650       0.00039103       0.00026318       0.00000650       0.00039103
O        4.48159552       0.31680172      25.09369404        4      -0.00013722       0.00022467       0.00039103      -0.00013722       0.00022467       0.00039103
O        8.71822562       0.31681085      25.09369624        4       0.00020559       0.00016259       0.00037297       0.00020559       0.00016259       0.00037297
O        2.51516529       3.72277236      25.09369624        4       0.00003802      -0.00025934       0.00037297       0.00003802      -0.00025934       0.00037297
O        8.56634465       7.39179943      25.09369624        4      -0.00024361       0.00009675       0.00037297      -0.00024361       0.00009675       0.00037297
O       -4.08475575       7.70860794       5.17384815        4       0.00012596       0.00023117      -0.00039103       0.00012596       0.00023117      -0.00039103
O        1.96643942       4.03957643       5.17384815        4      -0.00026318      -0.00000650      -0.00039103      -0.00026318      -0.00000650      -0.00039103
O        2.11831633      11.11458093       5.17384815        4       0.00013722      -0.00022467      -0.00039103       0.00013722      -0.00022467      -0.00039103
O       -2.11831377      11.11457180       5.17384595        4      -0.00020559      -0.00016259      -0.00037297      -0.00020559      -0.00016259      -0.00037297
O        4.08474656       7.70861028       5.17384595        4      -0.00003802       0.00025934      -0.00037297      -0.00003802       0.00025934      -0.00037297
O       -1.96643280       4.03958321       5.17384595        4       0.00024361      -0.00009675      -0.00037297       0.00024361      -0.00009675      -0.00037297
O       -2.42466466       6.22104259      11.29317960        5       0.00082982       0.00046291      -0.00022839       0.00082982       0.00046291      -0.00022839
O        2.42466326       6.22104016      11.29317960        5      -0.00081580       0.00048719      -0.00022839      -0.00081580       0.00048719      -0.00022839
O        0.00000141      10.42068255      11.29317960        5      -0.00001402      -0.00095010      -0.00022839      -0.00001402      -0.00095010      -0.00022839
O        9.02457651       5.21034006      18.97436258        5      -0.00082982      -0.00046291       0.00022839      -0.00082982      -0.00046291       0.00022839
O        4.17524859       5.21034249      18.97436258        5       0.00081580      -0.00048719       0.00022839       0.00081580      -0.00048719       0.00022839
O        6.59991044       1.01070010      18.97436258        5       0.00001402       0.00095010       0.00022839       0.00001402       0.00095010       0.00022839
O        9.02457651       5.21034006      26.42695070        5      -0.00082982      -0.00046291      -0.00022839      -0.00082982      -0.00046291      -0.00022839
O        4.17524859       5.21034249      26.42695070        5       0.00081580      -0.00048719      -0.00022839       0.00081580      -0.00048719      -0.00022839
O        6.59991044       1.01070010      26.42695070        5       0.00001402       0.00095010      -0.00022839       0.00001402       0.00095010      -0.00022839
O       -2.42466466       6.22104259       3.84059149        5       0.00082982       0.00046291       0.00022839       0.00082982       0.00046291       0.00022839
O        2.42466326       6.22104016       3.84059149        5      -0.00081580       0.00048719       0.00022839      -0.00081580       0.00048719       0.00022839
O        0.00000141      10.42068255       3.84059149        5      -0.00001402      -0.00095010       0.00022839      -0.00001402      -0.00095010       0.00022839
O       -4.16410778       7.69985948      12.64918521        6       0.00043591       0.00028664       0.00027809       0.00043591       0.00028664       0.00027809
O        2.01369183       3.97522978      12.64918521        6      -0.00046619       0.00023419       0.00027809      -0.00046619       0.00023419       0.00027809
O        2.15041596      11.18767603      12.64918521        6       0.00003028      -0.00052083       0.00027809       0.00003028      -0.00052083       0.00027809
O       -2.15041754      11.18767603      12.64918728        6      -0.00000267      -0.00054849       0.00027019      -0.00000267      -0.00054849       0.00027019
O        4.16410857       7.69986085      12.64918728        6      -0.00047368       0.00027655       0.00027019      -0.00047368       0.00027655       0.00027019
O       -2.01369104       3.97522842      12.64918728        6       0.00047634       0.00027194       0.00027019       0.00047634       0.00027194       0.00027019
O       10.76401963       3.73152317      17.61835698        6      -0.00043591      -0.00028664      -0.00027809      -0.00043591      -0.00028664      -0.00027809
O        4.58622002       7.45615286      17.61835698        6       0.00046619      -0.00023419      -0.00027809       0.00046619      -0.00023419      -0.00027809
O        4.44949589       0.24370662      17.61835698        6      -0.00003028       0.00052083      -0.00027809      -0.00003028       0.00052083      -0.00027809
O        8.75032939       0.24370661      17.61835491        6       0.00000267       0.00054849      -0.00027019       0.00000267       0.00054849      -0.00027019
O        2.43580327       3.73152180      17.61835491        6       0.00047368      -0.00027655      -0.00027019       0.00047368      -0.00027655      -0.00027019
O        8.61360289       7.45615423      17.61835491        6      -0.00047634      -0.00027194      -0.00027019      -0.00047634      -0.00027194      -0.00027019
O       10.76401963       3.73152317      27.78295630        6      -0.00043591      -0.00028664       0.00027809      -0.00043591      -0.00028664       0.00027809
O        4.58622002       7.45615286      27.78295630        6       0.00046619      -0.00023419       0.00027809       0.00046619      -0.00023419       0.00027809
O        4.44949589       0.24370662      27.78295630        6      -0.00003028       0.00052083       0.00027809      -0.00003028       0.00052083       0.00027809
O        8.75032939       0.24370661      27.78295837        6       0.00000267       0.00054849       0.00027019       0.00000267       0.00054849       0.00027019
O        2.43580327       3.73152180      27.78295837        6       0.00047368      -0.00027655       0.00027019       0.00047368      -0.00027655       0.00027019
O        8.61360289       7.45615423      27.78295837        6      -0.00047634      -0.00027194       0.00027019      -0.00047634      -0.00027194       0.00027019
O       -4.16410778       7.69985948       2.48458589        6       0.00043591       0.00028664      -0.00027809       0.00043591       0.00028664      -0.00027809
O        2.01369183       3.97522978       2.48458589        6      -0.00046619       0.00023419      -0.00027809      -0.00046619       0.00023419      -0.00027809
O        2.15041596      11.18767603       2.48458589        6       0.00003028      -0.00052083      -0.00027809       0.00003028      -0.00052083      -0.00027809
O       -2.15041754      11.18767603       2.48458382        6      -0.00000267      -0.00054849      -0.00027019      -0.00000267      -0.00054849      -0.00027019
O        4.16410857       7.69986085       2.48458382        6      -0.00047368       0.00027655      -0.00027019      -0.00047368       0.00027655      -0.00027019
O       -2.01369104       3.97522842       2.48458382        6       0.00047634       0.00027194      -0.00027019       0.00047634       0.00027194      -0.00027019
O       -4.63714098      10.29817609       9.42796005        7       0.00017922      -0.00007362      -0.00038990       0.00017922      -0.00007362      -0.00038990
O        0.00000023       2.26641271       9.42796005        7      -0.00002585       0.00019202      -0.00038990      -0.00002585       0.00019202      -0.00038990
O        4.63714075      10.29817650       9.42796005        7      -0.00015337      -0.00011839      -0.00038990      -0.00015337      -0.00011839      -0.00038990
O       11.23705283       1.13320656      20.83958214        7      -0.00017922       0.00007362       0.00038990      -0.00017922       0.00007362       0.00038990
O        6.59991162       9.16496994      20.83958214        7       0.00002585      -0.00019202       0.00038990       0.00002585      -0.00019202       0.00038990
O        1.96277110       1.13320615      20.83958214        7       0.00015337       0.00011839       0.00038990       0.00015337       0.00011839       0.00038990
O       11.23705283       1.13320656      24.56173114        7      -0.00017922       0.00007362      -0.00038990      -0.00017922       0.00007362      -0.00038990
O        6.59991162       9.16496994      24.56173114        7       0.00002585      -0.00019202      -0.00038990       0.00002585      -0.00019202      -0.00038990
O        1.96277110       1.13320615      24.56173114        7       0.00015337       0.00011839      -0.00038990       0.00015337       0.00011839      -0.00038990
O       -4.63714098      10.29817609       5.70581105        7       0.00017922      -0.00007362       0.00038990       0.00017922      -0.00007362       0.00038990
O        0.00000023       2.26641271       5.70581105        7      -0.00002585       0.00019202       0.00038990      -0.00002585       0.00019202       0.00038990
O        4.63714075      10.29817650       5.70581105        7      -0.00015337      -0.00011839       0.00038990      -0.00015337      -0.00011839       0.00038990
O        8.36195486       8.33518440       7.56688555        8      -0.00061326       0.00007013      -0.00000000      -0.00061326       0.00007013      -0.00000000
O        1.80036483       3.07407314       7.56688555        8       0.00024589      -0.00056616       0.00000000       0.00024589      -0.00056616       0.00000000
O        9.63741585       0.02212511       7.56688555        8       0.00036737       0.00049603       0.00000000       0.00036737       0.00049603       0.00000000
O        3.56240247       0.02211447       7.56688555        8      -0.00037022       0.00055426      -0.00000000      -0.00037022       0.00055426      -0.00000000
O        4.83786231       8.33519437       7.56688555        8       0.00066512       0.00004349      -0.00000000       0.00066512       0.00004349      -0.00000000
O       11.39947077       3.07407380       7.56688555        8      -0.00029490      -0.00059775       0.00000000      -0.00029490      -0.00059775       0.00000000
O       -1.76204301       3.09619825      22.70065664        8       0.00061326      -0.00007013       0.00000000       0.00061326      -0.00007013       0.00000000
O        4.79954702       8.35730951      22.70065664        8      -0.00024589       0.00056616      -0.00000000      -0.00024589       0.00056616      -0.00000000
O       -3.03750400      11.40925753      22.70065664        8      -0.00036737      -0.00049603      -0.00000000      -0.00036737      -0.00049603      -0.00000000
O        3.03750938      11.40926818      22.70065664        8       0.00037022      -0.00055426       0.00000000       0.00037022      -0.00055426       0.00000000
O        1.76204954       3.09618827      22.70065664        8      -0.00066512      -0.00004349       0.00000000      -0.00066512      -0.00004349       0.00000000
O       -4.79955892       8.35730885      22.70065664        8       0.00029490       0.00059775      -0.00000000       0.00029490       0.00059775      -0.00000000
O        6.59991394       8.57219719       9.59912898        9      -0.00006632      -0.00010774       0.00055943      -0.00006632      -0.00010774       0.00055943
O        2.47612619       1.42959454       9.59912898        9       0.00012647      -0.00000357       0.00055943       0.00012647      -0.00000357       0.00055943
O       10.72369541       1.42959092       9.59912898        9      -0.00006015       0.00011131       0.00055943      -0.00006015       0.00011131       0.00055943
O       -0.00000209       2.85918546      20.66841320        9       0.00006632       0.00010774      -0.00055943       0.00006632       0.00010774      -0.00055943
O        4.12378566      10.00178811      20.66841320        9      -0.00012647       0.00000357      -0.00055943      -0.00012647       0.00000357      -0.00055943
O       -4.12378356      10.00179173      20.66841320        9       0.00006015      -0.00011131      -0.00055943       0.00006015      -0.00011131      -0.00055943
O       -0.00000209       2.85918546      24.73290008        9       0.00006632       0.00010774       0.00055943       0.00006632       0.00010774       0.00055943
O        4.12378566      10.00178811      24.73290008        9      -0.00012647       0.00000357       0.00055943      -0.00012647       0.00000357       0.00055943
O       -4.12378356      10.00179173      24.73290008        9       0.00006015      -0.00011131       0.00055943       0.00006015      -0.00011131       0.00055943
O        6.59991394       8.57219719       5.53464211        9      -0.00006632      -0.00010774      -0.00055943      -0.00006632      -0.00010774      -0.00055943
O        2.47612619       1.42959454       5.53464211        9       0.00012647      -0.00000357      -0.00055943       0.00012647      -0.00000357      -0.00055943
O       10.72369541       1.42959092       5.53464211        9      -0.00006015       0.00011131      -0.00055943      -0.00006015       0.00011131      -0.00055943
O       -4.58849725      10.27009056      13.25975594       10       0.00004498      -0.00002239       0.00022633       0.00004498      -0.00002239       0.00022633
O        0.00000115       2.32258218      13.25975594       10      -0.00000310       0.00005015       0.00022633      -0.00000310       0.00005015       0.00022633
O        4.58849610      10.27009256      13.25975594       10      -0.00004188      -0.00002776       0.00022633      -0.00004188      -0.00002776       0.00022633
O       11.18840910       1.16129209      17.00778624       10      -0.00004498       0.00002239      -0.00022633      -0.00004498       0.00002239      -0.00022633
O        6.59991070       9.10880047      17.00778624       10       0.00000310      -0.00005015      -0.00022633       0.00000310      -0.00005015      -0.00022633
O        2.01141575       1.16129009      17.00778624       10       0.00004188       0.00002776      -0.00022633       0.00004188       0.00002776      -0.00022633
O       11.18840910       1.16129209      28.39352704       10      -0.00004498       0.00002239       0.00022633      -0.00004498       0.00002239       0.00022633
O        6.59991070       9.10880047      28.39352704       10       0.00000310      -0.00005015       0.00022633       0.00000310      -0.00005015       0.00022633
O        2.01141575       1.16129009      28.39352704       10       0.00004188       0.00002776       0.00022633       0.00004188       0.00002776       0.00022633
O       -4.58849725      10.27009056       1.87401515       10       0.00004498      -0.00002239      -0.00022633       0.00004498      -0.00002239      -0.00022633
O        0.00000115       2.32258218       1.87401515       10      -0.00000310       0.00005015      -0.00022633      -0.00000310       0.00005015      -0.00022633
O        4.58849610      10.27009256       1.87401515       10      -0.00004188      -0.00002776      -0.00022633      -0.00004188      -0.00002776      -0.00022633
O       -4.81718139       8.34360073      15.13377036       11       0.00016962      -0.00029451       0.00000013       0.00016962      -0.00029451       0.00000013
O        1.78273236       3.08778082      15.13377036       11       0.00017025       0.00029415       0.00000013       0.00017025       0.00029415       0.00000013
O        9.63436089       0.00000110      15.13377036       11      -0.00033986       0.00000036       0.00000013      -0.00033986       0.00000036       0.00000013
O        3.56546281      -0.00000110      15.13377183       11       0.00033986      -0.00000036      -0.00000013       0.00033986      -0.00000036      -0.00000013
O        4.81717949       8.34360182      15.13377183       11      -0.00017025      -0.00029415      -0.00000013      -0.00017025      -0.00029415      -0.00000013
O       -1.78273046       3.08778192      15.13377183       11      -0.00016962       0.00029451      -0.00000013      -0.00016962       0.00029451      -0.00000013
O       -1.78273046       3.08778192      -0.00000074       11      -0.00016962       0.00029451       0.00000013      -0.00016962       0.00029451       0.00000013
O        4.81717949       8.34360182      -0.00000074       11      -0.00017025      -0.00029415       0.00000013      -0.00017025      -0.00029415       0.00000013
O        3.56546281      -0.00000110      -0.00000074       11       0.00033986      -0.00000036       0.00000013       0.00033986      -0.00000036       0.00000013
O        9.63436089       0.00000110       0.00000074       11      -0.00033986       0.00000036      -0.00000013      -0.00033986       0.00000036      -0.00000013
O        1.78273236       3.08778082       0.00000074       11       0.00017025       0.00029415      -0.00000013       0.00017025       0.00029415      -0.00000013
O       -4.81718139       8.34360073       0.00000074       11       0.00016962      -0.00029451      -0.00000013       0.00016962      -0.00029451      -0.00000013
O        6.59991110       8.61912037      13.13526986       12       0.00000210       0.00001060       0.00042114       0.00000210       0.00001060       0.00042114
O        2.43549095       1.40613048      13.13526986       12      -0.00001023      -0.00000348       0.00042114      -0.00001023      -0.00000348       0.00042114
O       10.76433350       1.40613179      13.13526986       12       0.00000813      -0.00000712       0.00042114       0.00000813      -0.00000712       0.00042114
O        0.00000075       2.81226227      17.13227233       12      -0.00000210      -0.00001060      -0.00042114      -0.00000210      -0.00001060      -0.00042114
O        4.16442090      10.02525216      17.13227233       12       0.00001023       0.00000348      -0.00042114       0.00001023       0.00000348      -0.00042114
O       -4.16442165      10.02525086      17.13227233       12      -0.00000813       0.00000712      -0.00042114      -0.00000813       0.00000712      -0.00042114
O        0.00000075       2.81226227      28.26904095       12      -0.00000210      -0.00001060       0.00042114      -0.00000210      -0.00001060       0.00042114
O        4.16442090      10.02525216      28.26904095       12       0.00001023       0.00000348       0.00042114       0.00001023       0.00000348       0.00042114
O       -4.16442165      10.02525086      28.26904095       12      -0.00000813       0.00000712       0.00042114      -0.00000813       0.00000712       0.00042114
O        6.59991110       8.61912037       1.99850123       12       0.00000210       0.00001060      -0.00042114       0.00000210       0.00001060      -0.00042114
O        2.43549095       1.40613048       1.99850123       12      -0.00001023      -0.00000348      -0.00042114      -0.00001023      -0.00000348      -0.00042114
O       10.76433350       1.40613179       1.99850123       12       0.00000813      -0.00000712      -0.00042114       0.00000813      -0.00000712      -0.00042114
K       -0.00000000       0.00000000      18.77013336       13      -0.00000000       0.00000000      -0.00004328      -0.00000000       0.00000000      -0.00004328
K       -0.00000000      -0.00000000      11.49740883       13       0.00000000      -0.00000000       0.00004328       0.00000000      -0.00000000       0.00004328
K       -0.00000000      -0.00000000       3.63636226       13      -0.00000000       0.00000000      -0.00004328      -0.00000000       0.00000000      -0.00004328
K       -0.00000000       0.00000000      26.63117992       13       0.00000000      -0.00000000       0.00004328       0.00000000      -0.00000000       0.00004328
K        6.59991267      -0.38156204       7.56688555       14      -0.00000590       0.00095120       0.00000000      -0.00000590       0.00095120       0.00000000
K       10.23030979       5.90647306       7.56688555       14      -0.00082081      -0.00048071       0.00000000      -0.00082081      -0.00048071       0.00000000
K        2.96951309       5.90647163       7.56688555       14       0.00082671      -0.00047049      -0.00000000       0.00082671      -0.00047049      -0.00000000
K       -0.00000082      11.81294469      22.70065664       14       0.00000590      -0.00095120      -0.00000000       0.00000590      -0.00095120      -0.00000000
K       -3.63039794       5.52490959      22.70065664       14       0.00082081       0.00048071       0.00000000       0.00082081       0.00048071       0.00000000
K        3.63039876       5.52491101      22.70065664       14      -0.00082671       0.00047049       0.00000000      -0.00082671       0.00047049       0.00000000
