220
Lattice="13.190461926244756 0.0 0.0 -6.595230963122376 11.423275115779381 0.0 0.0 0.0 30.41962842466371" Properties=species:S:1:pos:R:3:spacegroup_kinds:I:1:mace_forces:R:3:forces:R:3 spacegroup="P 63/m m c" unit_cell=conventional occupancy="_JSON {\"0\": {\"Si\": 0.875, \"Al\": 0.125}, \"1\": {\"Si\": 0.875, \"Al\": 0.125}, \"2\": {\"Si\": 0.875, \"Al\": 0.125}, \"3\": {\"O\": 1.0}, \"4\": {\"O\": 1.0}, \"5\": {\"O\": 1.0}, \"6\": {\"O\": 1.0}, \"7\": {\"O\": 1.0}, \"8\": {\"O\": 1.0}, \"9\": {\"O\": 1.0}, \"10\": {\"O\": 1.0}, \"11\": {\"O\": 1.0}, \"12\": {\"O\": 1.0}, \"13\": {\"K\": 0.668}, \"14\": {\"Al\": 0.125, \"Si\": 0.875}, \"15\": {\"Al\": 0.125, \"Si\": 0.875}, \"16\": {\"Al\": 0.125, \"Si\": 0.875}}" initial_spacegroup="P6_3/m (176)" final_spacegroup="P6_3/mmc (194)" model_path=/mnt/87bd3caf-192d-48ed-9f63-c5afcf32b9ec/ML/janus_work/models/mace-mp-0b3-medium.model arch=mace mace_stress="5.7765010119676656e-05 5.776502104934957e-05 -0.00011806856650266217 1.5479680631280295e-13 -1.572730075846676e-13 3.315826088837343e-13" mace_energy=-1720.7200386676568 energy=-1720.7200386676568 free_energy=-1720.7200386676568 stress="5.7765010119676656e-05 3.315826088837343e-13 -1.572730075846676e-13 3.315826088837343e-13 5.776502104934957e-05 1.5479680631280295e-13 -1.572730075846676e-13 1.5479680631280295e-13 -0.00011806856650266217" pbc="T T T"
Si      -3.18368497       7.62783174      11.40661290        0       0.00034281       0.00003932      -0.00029738       0.00034281       0.00003932      -0.00029738
Si       1.58117738       4.85220719      11.40661290        0      -0.00020545       0.00027722      -0.00029738      -0.00020545       0.00027722      -0.00029738
Si       1.60250759      10.36651130      11.40661290        0      -0.00013737      -0.00031654      -0.00029738      -0.00013737      -0.00031654      -0.00029738
Si      -1.60249531      10.36651121      11.40661549        0      -0.00008851      -0.00006915      -0.00036088      -0.00008851      -0.00006915      -0.00036088
Si       3.18367875       7.62782116      11.40661549        0      -0.00001564       0.00011122      -0.00036088      -0.00001564       0.00011122      -0.00036088
Si      -1.58118344       4.85221786      11.40661549        0       0.00010413      -0.00004206      -0.00036088       0.00010413      -0.00004206      -0.00036088
Si       9.77891593       3.79544337      19.01301552        0      -0.00034281      -0.00003933       0.00029738      -0.00034281      -0.00003933       0.00029738
Si       5.01405358       6.57106793      19.01301552        0       0.00020545      -0.00027722       0.00029738       0.00020545      -0.00027722       0.00029738
Si       4.99272338       1.05676381      19.01301552        0       0.00013737       0.00031654       0.00029738       0.00013737       0.00031654       0.00029738
Si       8.19772628       1.05676390      19.01301293        0       0.00008851       0.00006916       0.00036088       0.00008851       0.00006916       0.00036088
Si       3.41155221       3.79545395      19.01301293        0       0.00001563      -0.00011122       0.00036088       0.00001563      -0.00011122       0.00036088
Si       8.17641440       6.57105726      19.01301293        0      -0.00010413       0.00004206       0.00036088      -0.00010413       0.00004206       0.00036088
Si       9.77891593       3.79544337      26.61642711        0      -0.00034282      -0.00003929      -0.00029738      -0.00034282      -0.00003929      -0.00029738
Si       5.01405358       6.57106793      26.61642711        0       0.00020546      -0.00027722      -0.00029738       0.00020546      -0.00027722      -0.00029738
Si       4.99272338       1.05676381      26.61642711        0       0.00013734       0.00031654      -0.00029738       0.00013734       0.00031654      -0.00029738
Si       8.19772628       1.05676391      26.61642970        0       0.00008849       0.00006915      -0.00036088       0.00008849       0.00006915      -0.00036088
Si       3.41155221       3.79545395      26.61642970        0       0.00001564      -0.00011121      -0.00036088       0.00001564      -0.00011121      -0.00036088
Si       8.17641440       6.57105726      26.61642970        0      -0.00010415       0.00004209      -0.00036088      -0.00010415       0.00004209      -0.00036088
Si      -3.18368497       7.62783174       3.80320131        0       0.00034281       0.00003930       0.00029738       0.00034281       0.00003930       0.00029738
Si       1.58117738       4.85220719       3.80320131        0      -0.00020546       0.00027722       0.00029738      -0.00020546       0.00027722       0.00029738
Si       1.60250759      10.36651130       3.80320131        0      -0.00013735      -0.00031654       0.00029738      -0.00013735      -0.00031654       0.00029738
Si      -1.60249531      10.36651121       3.80319872        0      -0.00008849      -0.00006915       0.00036088      -0.00008849      -0.00006915       0.00036088
Si       3.18367875       7.62782116       3.80319872        0      -0.00001564       0.00011121       0.00036088      -0.00001564       0.00011121       0.00036088
Si      -1.58118344       4.85221786       3.80319872        0       0.00010415      -0.00004208       0.00036088       0.00010415      -0.00004208       0.00036088
Si       8.15869350       8.72272260       9.17388990        1      -0.00006542       0.00013226       0.00015611      -0.00006542       0.00013226       0.00015611
Si       1.55701582       2.70427453       9.17388990        1      -0.00008182      -0.00012278       0.00015610      -0.00008182      -0.00012278       0.00015610
Si      10.06998357      -0.00372201       9.17388990        1       0.00014725      -0.00000947       0.00015610       0.00014725      -0.00000947       0.00015610
Si       3.12046952      -0.00370370       9.17389703        1       0.00020150      -0.00007997      -0.00001628       0.00020150      -0.00007997      -0.00001628
Si       5.03178870       8.72272109       9.17389703        1      -0.00017000      -0.00013452      -0.00001629      -0.00017000      -0.00013452      -0.00001629
Si      11.63343466       2.70425773       9.17389703        1      -0.00003149       0.00021449      -0.00001629      -0.00003149       0.00021449      -0.00001629
Si      -1.56346254       2.70055252      21.24573852        1       0.00006542      -0.00013225      -0.00015611       0.00006542      -0.00013225      -0.00015611
Si       5.03821514       8.71900058      21.24573852        1       0.00008182       0.00012279      -0.00015610       0.00008182       0.00012279      -0.00015610
Si      -3.47475261      11.42699713      21.24573852        1      -0.00014725       0.00000947      -0.00015610      -0.00014725       0.00000947      -0.00015610
Si       3.47476144      11.42697882      21.24573140        1      -0.00020150       0.00007997       0.00001628      -0.00020150       0.00007997       0.00001628
Si       1.56344226       2.70055403      21.24573140        1       0.00017000       0.00013452       0.00001629       0.00017000       0.00013452       0.00001629
Si      -5.03820370       8.71901739      21.24573140        1       0.00003149      -0.00021448       0.00001629       0.00003149      -0.00021448       0.00001629
Si      -1.56346254       2.70055252      24.38370412        1       0.00006543      -0.00013226       0.00015609       0.00006543      -0.00013226       0.00015609
Si       5.03821514       8.71900058      24.38370412        1       0.00008183       0.00012278       0.00015611       0.00008183       0.00012278       0.00015611
Si      -3.47475261      11.42699713      24.38370412        1      -0.00014725       0.00000947       0.00015611      -0.00014725       0.00000947       0.00015611
Si       3.47476144      11.42697882      24.38371124        1      -0.00020149       0.00007996      -0.00001629      -0.00020149       0.00007996      -0.00001629
Si       1.56344226       2.70055403      24.38371124        1       0.00017001       0.00013451      -0.00001629       0.00017001       0.00013451      -0.00001629
Si      -5.03820370       8.71901739      24.38371124        1       0.00003149      -0.00021449      -0.00001628       0.00003149      -0.00021449      -0.00001628
Si       8.15869350       8.72272260       6.03592431        1      -0.00006542       0.00013226      -0.00015609      -0.00006542       0.00013226      -0.00015609
Si       1.55701582       2.70427453       6.03592431        1      -0.00008183      -0.00012278      -0.00015611      -0.00008183      -0.00012278      -0.00015611
Si      10.06998357      -0.00372201       6.03592431        1       0.00014725      -0.00000947      -0.00015610       0.00014725      -0.00000947      -0.00015610
Si       3.12046952      -0.00370370       6.03591718        1       0.00020149      -0.00007996       0.00001629       0.00020149      -0.00007996       0.00001629
Si       5.03178870       8.72272109       6.03591718        1      -0.00017001      -0.00013451       0.00001629      -0.00017001      -0.00013451       0.00001629
Si      11.63343466       2.70425773       6.03591718        1      -0.00003149       0.00021449       0.00001628      -0.00003149       0.00021449       0.00001628
Si       8.15765753       8.72064459      13.64258747        2      -0.00021238      -0.00005241      -0.00002649      -0.00021238      -0.00005241      -0.00002649
Si       1.55933340       2.70441636      13.64258747        2       0.00015158      -0.00015773      -0.00002649       0.00015158      -0.00015773      -0.00002649
Si      10.06870195      -0.00178584      13.64258747        2       0.00006081       0.00021014      -0.00002649       0.00006081       0.00021014      -0.00002649
Si       3.12175817      -0.00177801      13.64259758        2       0.00008103       0.00015837      -0.00018879       0.00008103       0.00015837      -0.00018879
Si       5.03281208       8.72064224      13.64259758        2       0.00009664      -0.00014936      -0.00018879       0.00009664      -0.00014936      -0.00018879
Si      11.63112264       2.70441088      13.64259758        2      -0.00017767      -0.00000901      -0.00018878      -0.00017767      -0.00000901      -0.00018878
Si      -1.56242657       2.70263052      16.77704095        2       0.00021238       0.00005241       0.00002650       0.00021238       0.00005241       0.00002650
Si       5.03589756       8.71885875      16.77704095        2      -0.00015158       0.00015773       0.00002649      -0.00015158       0.00015773       0.00002649
Si      -3.47347099      11.42506096      16.77704095        2      -0.00006081      -0.00021014       0.00002649      -0.00006081      -0.00021014       0.00002649
Si       3.47347279      11.42505312      16.77703084        2      -0.00008103      -0.00015837       0.00018879      -0.00008103      -0.00015837       0.00018879
Si       1.56241888       2.70263288      16.77703084        2      -0.00009664       0.00014936       0.00018879      -0.00009664       0.00014936       0.00018879
Si      -5.03589168       8.71886423      16.77703084        2       0.00017766       0.00000901       0.00018878       0.00017766       0.00000901       0.00018878
Si      -1.56242657       2.70263052      28.85240168        2       0.00021239       0.00005241      -0.00002648       0.00021239       0.00005241      -0.00002648
Si       5.03589756       8.71885875      28.85240168        2      -0.00015158       0.00015772      -0.00002650      -0.00015158       0.00015772      -0.00002650
Si      -3.47347099      11.42506096      28.85240168        2      -0.00006081      -0.00021014      -0.00002649      -0.00006081      -0.00021014      -0.00002649
Si       3.47347279      11.42505312      28.85241179        2      -0.00008102      -0.00015838      -0.00018878      -0.00008102      -0.00015838      -0.00018878
Si       1.56241888       2.70263288      28.85241179        2      -0.00009664       0.00014936      -0.00018878      -0.00009664       0.00014936      -0.00018878
Si      -5.03589168       8.71886423      28.85241179        2       0.00017767       0.00000901      -0.00018880       0.00017767       0.00000901      -0.00018880
Si       8.15765753       8.72064459       1.56722674        2      -0.00021239      -0.00005241       0.00002648      -0.00021239      -0.00005241       0.00002648
Si       1.55933340       2.70441636       1.56722674        2       0.00015158      -0.00015772       0.00002650       0.00015158      -0.00015772       0.00002650
Si      10.06870195      -0.00178584       1.56722674        2       0.00006081       0.00021014       0.00002649       0.00006081       0.00021014       0.00002649
Si       3.12175817      -0.00177801       1.56721663        2       0.00008102       0.00015838       0.00018878       0.00008102       0.00015838       0.00018878
Si       5.03281208       8.72064224       1.56721663        2       0.00009664      -0.00014936       0.00018878       0.00009664      -0.00014936       0.00018878
Si      11.63112264       2.70441088       1.56721663        2      -0.00017766      -0.00000901       0.00018880      -0.00017766      -0.00000901       0.00018880
O       -2.06835386       8.80968184      11.40487522        3      -0.00051790       0.00044330       0.00002777      -0.00051790       0.00044330       0.00002777
O       -0.00000038       5.22718721      11.40487522        3      -0.00012496      -0.00067016       0.00002777      -0.00012496      -0.00067016       0.00002777
O        2.06835424       8.80968118      11.40487522        3       0.00064286       0.00022687       0.00002777       0.00064286       0.00022687       0.00002777
O        8.66358482       2.61359327      19.01475321        3       0.00051790      -0.00044330      -0.00002777       0.00051790      -0.00044330      -0.00002777
O        6.59523134       6.19608791      19.01475321        3       0.00012496       0.00067016      -0.00002777       0.00012496       0.00067016      -0.00002777
O        4.52687672       2.61359394      19.01475321        3      -0.00064286      -0.00022687      -0.00002777      -0.00064286      -0.00022687      -0.00002777
O        8.66358482       2.61359327      26.61468943        3       0.00051790      -0.00044330       0.00002777       0.00051790      -0.00044330       0.00002777
O        6.59523134       6.19608791      26.61468943        3       0.00012496       0.00067016       0.00002777       0.00012496       0.00067016       0.00002777
O        4.52687672       2.61359394      26.61468943        3      -0.00064286      -0.00022687       0.00002777      -0.00064286      -0.00022687       0.00002777
O       -2.06835386       8.80968184       3.80493899        3      -0.00051790       0.00044330      -0.00002777      -0.00051790       0.00044330      -0.00002777
O       -0.00000038       5.22718721       3.80493899        3      -0.00012496      -0.00067016      -0.00002777      -0.00012496      -0.00067016      -0.00002777
O        2.06835424       8.80968118       3.80493899        3       0.00064286       0.00022687      -0.00002777       0.00064286       0.00022687      -0.00002777
O       -4.11632800       7.74131915      10.07193974        4       0.00012786       0.00021614      -0.00012822       0.00012786       0.00021614      -0.00012822
O        1.94921592       3.98777092      10.07193974        4      -0.00025111       0.00000266      -0.00012821      -0.00025111       0.00000266      -0.00012821
O        2.16711208      11.11746016      10.07193974        4       0.00012326      -0.00021880      -0.00012821       0.00012326      -0.00021880      -0.00012821
O       -2.16710296      11.11747642      10.07193919        4      -0.00030806      -0.00029996      -0.00003728      -0.00030806      -0.00029996      -0.00003728
O        4.11633752       7.74130312      10.07193919        4      -0.00010574       0.00041677      -0.00003728      -0.00010574       0.00041677      -0.00003728
O       -1.94923456       3.98777069      10.07193919        4       0.00041380      -0.00011681      -0.00003728       0.00041380      -0.00011681      -0.00003728
O       10.71155896       3.68195596      20.34768869        4      -0.00012785      -0.00021614       0.00012822      -0.00012785      -0.00021614       0.00012822
O        4.64601505       7.43550420      20.34768869        4       0.00025111      -0.00000266       0.00012821       0.00025111      -0.00000266       0.00012821
O        4.42811888       0.30581496      20.34768869        4      -0.00012326       0.00021880       0.00012821      -0.00012326       0.00021880       0.00012821
O        8.76233392       0.30579870      20.34768923        4       0.00030807       0.00029996       0.00003728       0.00030807       0.00029996       0.00003728
O        2.47889344       3.68197200      20.34768923        4       0.00010574      -0.00041677       0.00003728       0.00010574      -0.00041677       0.00003728
O        8.54446553       7.43550442      20.34768923        4      -0.00041380       0.00011681       0.00003728      -0.00041380       0.00011681       0.00003728
O       10.71155896       3.68195596      25.28175395        4      -0.00012786      -0.00021614      -0.00012821      -0.00012786      -0.00021614      -0.00012821
O        4.64601505       7.43550420      25.28175395        4       0.00025111      -0.00000265      -0.00012822       0.00025111      -0.00000265      -0.00012822
O        4.42811888       0.30581496      25.28175395        4      -0.00012326       0.00021880      -0.00012821      -0.00012326       0.00021880      -0.00012821
O        8.76233392       0.30579870      25.28175340        4       0.00030806       0.00029996      -0.00003728       0.00030806       0.00029996      -0.00003728
O        2.47889344       3.68197200      25.28175340        4       0.00010574      -0.00041677      -0.00003728       0.00010574      -0.00041677      -0.00003728
O        8.54446553       7.43550442      25.28175340        4      -0.00041380       0.00011681      -0.00003728      -0.00041380       0.00011681      -0.00003728
O       -4.11632800       7.74131915       5.13787447        4       0.00012786       0.00021614       0.00012821       0.00012786       0.00021614       0.00012821
O        1.94921592       3.98777092       5.13787447        4      -0.00025111       0.00000265       0.00012822      -0.00025111       0.00000265       0.00012822
O        2.16711208      11.11746016       5.13787447        4       0.00012326      -0.00021880       0.00012821       0.00012326      -0.00021880       0.00012821
O       -2.16710296      11.11747642       5.13787502        4      -0.00030806      -0.00029996       0.00003728      -0.00030806      -0.00029996       0.00003728
O        4.11633752       7.74130312       5.13787502        4      -0.00010574       0.00041677       0.00003728      -0.00010574       0.00041677       0.00003728
O       -1.94923456       3.98777069       5.13787502        4       0.00041380      -0.00011681       0.00003728       0.00041380      -0.00011681       0.00003728
O       -2.46408366       6.19288572      11.40805702        5      -0.00062105      -0.00052140      -0.00022081      -0.00062105      -0.00052140      -0.00022081
O        2.46407644       6.19287321      11.40805702        5       0.00076207      -0.00027715      -0.00022081       0.00076207      -0.00027715      -0.00022081
O        0.00000722      10.46079130      11.40805702        5      -0.00014100       0.00079855      -0.00022081      -0.00014100       0.00079855      -0.00022081
O        9.05931462       5.23038940      19.01157141        5       0.00062105       0.00052141       0.00022081       0.00062105       0.00052141       0.00022081
O        4.13115453       5.23040190      19.01157141        5      -0.00076207       0.00027715       0.00022081      -0.00076207       0.00027715       0.00022081
O        6.59522374       0.96248381      19.01157141        5       0.00014099      -0.00079855       0.00022081       0.00014099      -0.00079855       0.00022081
O        9.05931462       5.23038940      26.61787123        5       0.00062108       0.00052136      -0.00022081       0.00062108       0.00052136      -0.00022081
O        4.13115453       5.23040190      26.61787123        5      -0.00076208       0.00027714      -0.00022081      -0.00076208       0.00027714      -0.00022081
O        6.59522374       0.96248381      26.61787123        5       0.00014104      -0.00079855      -0.00022081       0.00014104      -0.00079855      -0.00022081
O       -2.46408366       6.19288572       3.80175719        5      -0.00062108      -0.00052136       0.00022081      -0.00062108      -0.00052136       0.00022081
O        2.46407644       6.19287321       3.80175719        5       0.00076208      -0.00027714       0.00022081       0.00076208      -0.00027714       0.00022081
O        0.00000722      10.46079130       3.80175719        5      -0.00014103       0.00079855       0.00022081      -0.00014103       0.00079855       0.00022081
O       -4.11621058       7.74397431      12.74095481        6      -0.00031627       0.00006699      -0.00022977      -0.00031627       0.00006699      -0.00022977
O        1.94685777       3.98654503      12.74095481        6       0.00010012      -0.00030739      -0.00022978       0.00010012      -0.00030739      -0.00022978
O        2.16935281      11.11603089      12.74095481        6       0.00021615       0.00024040      -0.00022978       0.00021615       0.00024040      -0.00022978
O       -2.16935306      11.11603908      12.74095768        6      -0.00019831       0.00014332      -0.00028957      -0.00019831       0.00014332      -0.00028957
O        4.11621779       7.74397044      12.74095768        6       0.00022327       0.00010008      -0.00028958       0.00022327       0.00010008      -0.00028958
O       -1.94686474       3.98654072      12.74095768        6      -0.00002496      -0.00024340      -0.00028958      -0.00002496      -0.00024340      -0.00028958
O       10.71144154       3.67930080      17.67867361        6       0.00031627      -0.00006699       0.00022977       0.00031627      -0.00006699       0.00022977
O        4.64837319       7.43673008      17.67867361        6      -0.00010012       0.00030739       0.00022978      -0.00010012       0.00030739       0.00022978
O        4.42587816       0.30724423      17.67867361        6      -0.00021615      -0.00024040       0.00022978      -0.00021615      -0.00024040       0.00022978
O        8.76458402       0.30723604      17.67867075        6       0.00019831      -0.00014332       0.00028957       0.00019831      -0.00014332       0.00028957
O        2.47901317       3.67930468      17.67867075        6      -0.00022327      -0.00010008       0.00028958      -0.00022327      -0.00010008       0.00028958
O        8.54209570       7.43673440      17.67867075        6       0.00002496       0.00024340       0.00028958       0.00002496       0.00024340       0.00028958
O       10.71144154       3.67930080      27.95076903        6       0.00031627      -0.00006698      -0.00022978       0.00031627      -0.00006698      -0.00022978
O        4.64837319       7.43673008      27.95076902        6      -0.00010012       0.00030740      -0.00022977      -0.00010012       0.00030740      -0.00022977
O        4.42587816       0.30724423      27.95076903        6      -0.00021615      -0.00024040      -0.00022978      -0.00021615      -0.00024040      -0.00022978
O        8.76458402       0.30723604      27.95077189        6       0.00019830      -0.00014332      -0.00028958       0.00019830      -0.00014332      -0.00028958
O        2.47901317       3.67930468      27.95077189        6      -0.00022327      -0.00010008      -0.00028957      -0.00022327      -0.00010008      -0.00028957
O        8.54209570       7.43673440      27.95077189        6       0.00002496       0.00024340      -0.00028957       0.00002496       0.00024340      -0.00028957
O       -4.11621058       7.74397431       2.46885940        6      -0.00031627       0.00006699       0.00022978      -0.00031627       0.00006699       0.00022978
O        1.94685777       3.98654503       2.46885940        6       0.00010012      -0.00030740       0.00022977       0.00010012      -0.00030740       0.00022977
O        2.16935281      11.11603089       2.46885940        6       0.00021615       0.00024040       0.00022978       0.00021615       0.00024040       0.00022978
O       -2.16935306      11.11603908       2.46885654        6      -0.00019830       0.00014332       0.00028958      -0.00019830       0.00014332       0.00028958
O        4.11621779       7.74397044       2.46885654        6       0.00022327       0.00010008       0.00028958       0.00022327       0.00010008       0.00028958
O       -1.94686474       3.98654072       2.46885654        6      -0.00002496      -0.00024340       0.00028957      -0.00002496      -0.00024340       0.00028957
O       -4.64720448      10.29858202       9.47211530        7       0.00059931      -0.00014201       0.00029144       0.00059931      -0.00014201       0.00029144
O       -0.00000045       2.24938697       9.47211530        7      -0.00017667       0.00059002       0.00029145      -0.00017667       0.00059002       0.00029145
O        4.64720493      10.29858124       9.47211530        7      -0.00042264      -0.00044801       0.00029145      -0.00042264      -0.00044801       0.00029145
O       11.24243545       1.12469310      20.94751313        7      -0.00059931       0.00014201      -0.00029144      -0.00059931       0.00014201      -0.00029144
O        6.59523141       9.17388815      20.94751313        7       0.00017667      -0.00059002      -0.00029145       0.00017667      -0.00059002      -0.00029145
O        1.94802603       1.12469387      20.94751313        7       0.00042264       0.00044801      -0.00029145       0.00042264       0.00044801      -0.00029145
O       11.24243545       1.12469310      24.68192951        7      -0.00059931       0.00014201       0.00029145      -0.00059931       0.00014201       0.00029145
O        6.59523141       9.17388815      24.68192951        7       0.00017667      -0.00059002       0.00029144       0.00017667      -0.00059002       0.00029144
O        1.94802603       1.12469387      24.68192951        7       0.00042264       0.00044802       0.00029145       0.00042264       0.00044802       0.00029145
O       -4.64720448      10.29858202       5.73769891        7       0.00059931      -0.00014201      -0.00029145       0.00059931      -0.00014201      -0.00029145
O       -0.00000045       2.24938697       5.73769891        7      -0.00017667       0.00059002      -0.00029144      -0.00017667       0.00059002      -0.00029144
O        4.64720493      10.29858124       5.73769891        7      -0.00042264      -0.00044802      -0.00029145      -0.00042264      -0.00044802      -0.00029145
O        8.37661549       8.36830582       7.60490711        8      -0.00014935      -0.00080355      -0.00000001      -0.00014935      -0.00080355      -0.00000001
O        1.75498875       3.07020890       7.60490711        8       0.00077057       0.00027243       0.00000000       0.00077057       0.00027243       0.00000000
O        9.65408865      -0.01523961       7.60490711        8      -0.00062122       0.00053112       0.00000000      -0.00062122       0.00053112       0.00000000
O        3.53638409      -0.01521897       7.60490711        8       0.00035541       0.00054319      -0.00000001       0.00035541       0.00054319      -0.00000001
O        4.81385890       8.36828614       7.60490711        8       0.00029271      -0.00057939      -0.00000000       0.00029271      -0.00057939      -0.00000000
O       11.43544990       3.07020794       7.60490711        8      -0.00064812       0.00003620       0.00000001      -0.00064812       0.00003620       0.00000001
O       -1.78138452       3.05496929      22.81472132        8       0.00014935       0.00080355       0.00000001       0.00014935       0.00080355       0.00000001
O        4.84024221       8.35306622      22.81472132        8      -0.00077057      -0.00027243      -0.00000000      -0.00077057      -0.00027243      -0.00000000
O       -3.05885769      11.43851472      22.81472132        8       0.00062122      -0.00053112      -0.00000001       0.00062122      -0.00053112      -0.00000001
O        3.05884688      11.43849409      22.81472132        8      -0.00035541      -0.00054319       0.00000001      -0.00035541      -0.00054319       0.00000001
O        1.78137206       3.05498897      22.81472132        8      -0.00029271       0.00057939      -0.00000000      -0.00029271       0.00057939      -0.00000000
O       -4.84021894       8.35306717      22.81472132        8       0.00064812      -0.00003620      -0.00000001       0.00064812      -0.00003620      -0.00000001
O        6.59524407       8.56708786       9.60633816        9      -0.00018758      -0.00002155       0.00024796      -0.00018758      -0.00002155       0.00024796
O        2.47352417       1.42810498       9.60633816        9       0.00011245      -0.00015167       0.00024796       0.00011245      -0.00015167       0.00024796
O       10.71692465       1.42808227       9.60633816        9       0.00007513       0.00017322       0.00024796       0.00007513       0.00017322       0.00024796
O       -0.00001311       2.85618726      20.81329026        9       0.00018758       0.00002155      -0.00024796       0.00018758       0.00002155      -0.00024796
O        4.12170680       9.99517013      20.81329026        9      -0.00011245       0.00015167      -0.00024796      -0.00011245       0.00015167      -0.00024796
O       -4.12169369       9.99519284      20.81329026        9      -0.00007513      -0.00017322      -0.00024796      -0.00007513      -0.00017322      -0.00024796
O       -0.00001311       2.85618726      24.81615237        9       0.00018757       0.00002155       0.00024796       0.00018757       0.00002155       0.00024796
O        4.12170680       9.99517013      24.81615237        9      -0.00011246       0.00015168       0.00024796      -0.00011246       0.00015168       0.00024796
O       -4.12169369       9.99519284      24.81615237        9      -0.00007512      -0.00017322       0.00024796      -0.00007512      -0.00017322       0.00024796
O        6.59524407       8.56708786       5.60347605        9      -0.00018758      -0.00002155      -0.00024796      -0.00018758      -0.00002155      -0.00024796
O        2.47352417       1.42810498       5.60347605        9       0.00011246      -0.00015168      -0.00024796       0.00011246      -0.00015168      -0.00024796
O       10.71692465       1.42808227       5.60347605        9       0.00007512       0.00017322      -0.00024796       0.00007512       0.00017322      -0.00024796
O       -4.64658166      10.29822411      13.35692284       10       0.00010425      -0.00000963      -0.00078958       0.00010425      -0.00000963      -0.00078958
O       -0.00000190       2.25010530      13.35692284       10      -0.00004378       0.00009510      -0.00078958      -0.00004378       0.00009510      -0.00078958
O        4.64658356      10.29822082      13.35692284       10      -0.00006047      -0.00008547      -0.00078958      -0.00006047      -0.00008547      -0.00078958
O       11.24181262       1.12505100      17.06270559       10      -0.00010425       0.00000963       0.00078958      -0.00010425       0.00000963       0.00078958
O        6.59523287       9.17316982      17.06270559       10       0.00004378      -0.00009510       0.00078958       0.00004378      -0.00009510       0.00078958
O        1.94864740       1.12505430      17.06270559       10       0.00006047       0.00008547       0.00078958       0.00006047       0.00008547       0.00078958
O       11.24181262       1.12505100      28.56673705       10      -0.00010425       0.00000963      -0.00078958      -0.00010425       0.00000963      -0.00078958
O        6.59523287       9.17316982      28.56673705       10       0.00004378      -0.00009510      -0.00078958       0.00004378      -0.00009510      -0.00078958
O        1.94864740       1.12505430      28.56673705       10       0.00006047       0.00008547      -0.00078958       0.00006047       0.00008547      -0.00078958
O       -4.64658166      10.29822411       1.85289138       10       0.00010425      -0.00000963       0.00078958       0.00010425      -0.00000963       0.00078958
O       -0.00000190       2.25010530       1.85289138       10      -0.00004378       0.00009510       0.00078958      -0.00004378       0.00009510       0.00078958
O        4.64658356      10.29822082       1.85289138       10      -0.00006047      -0.00008547       0.00078958      -0.00006047      -0.00008547       0.00078958
O        8.36757597       8.35348753      15.20980871       11       0.00035379      -0.00058538       0.00008855       0.00035379      -0.00058538       0.00008855
O        1.77234153       3.06978960      15.20980871       11       0.00033006       0.00059908       0.00008854       0.00033006       0.00059908       0.00008854
O        9.64577539      -0.00000201      15.20980871       11      -0.00068385      -0.00001370       0.00008853      -0.00068385      -0.00001370       0.00008853
O        3.54468654       0.00000201      15.20981971       11       0.00068385       0.00001370      -0.00008853       0.00068385       0.00001370      -0.00008853
O        4.82288943       8.35348552      15.20981971       11      -0.00033006      -0.00059908      -0.00008854      -0.00033006      -0.00059908      -0.00008854
O       11.41811692       3.06978759      15.20981971       11      -0.00035379       0.00058538      -0.00008855      -0.00035379       0.00058538      -0.00008855
O       -1.77234501       3.06978759      -0.00000550       11      -0.00035379       0.00058538       0.00008853      -0.00035379       0.00058538       0.00008853
O        4.82288943       8.35348552      -0.00000550       11      -0.00033006      -0.00059908       0.00008855      -0.00033006      -0.00059908       0.00008855
O       -3.05054442      11.42327712      -0.00000550       11       0.00068385       0.00001370       0.00008855       0.00068385       0.00001370       0.00008855
O        3.05054442      11.42327311       0.00000550       11      -0.00068385      -0.00001370      -0.00008855      -0.00068385      -0.00001370      -0.00008855
O        1.77234153       3.06978960       0.00000550       11       0.00033006       0.00059908      -0.00008855       0.00033006       0.00059908      -0.00008855
O       -4.82288595       8.35348753       0.00000550       11       0.00035379      -0.00058538      -0.00008853       0.00035379      -0.00058538      -0.00008853
O        6.59523448       8.57000343      13.20353943       12      -0.00005606      -0.00041501      -0.00049892      -0.00005606      -0.00041501      -0.00049892
O        2.47100401       1.42663889      13.20353943       12       0.00038744       0.00015896      -0.00049892       0.00038744       0.00015896      -0.00049892
O       10.71945440       1.42663280      13.20353943       12      -0.00033138       0.00025605      -0.00049893      -0.00033138       0.00025605      -0.00049893
O       -0.00000352       2.85327169      17.21608899       12       0.00005606       0.00041501       0.00049892       0.00005606       0.00041501       0.00049892
O        4.12422696       9.99663622      17.21608899       12      -0.00038744      -0.00015896       0.00049892      -0.00038744      -0.00015896       0.00049892
O       -4.12422344       9.99664232      17.21608899       12       0.00033138      -0.00025606       0.00049893       0.00033138      -0.00025606       0.00049893
O       -0.00000352       2.85327169      28.41335364       12       0.00005605       0.00041501      -0.00049893       0.00005605       0.00041501      -0.00049893
O        4.12422696       9.99663622      28.41335364       12      -0.00038745      -0.00015895      -0.00049892      -0.00038745      -0.00015895      -0.00049892
O       -4.12422344       9.99664232      28.41335364       12       0.00033139      -0.00025605      -0.00049892       0.00033139      -0.00025605      -0.00049892
O        6.59523448       8.57000343       2.00627478       12      -0.00005606      -0.00041501       0.00049893      -0.00005606      -0.00041501       0.00049893
O        2.47100401       1.42663889       2.00627478       12       0.00038745       0.00015895       0.00049892       0.00038745       0.00015895       0.00049892
O       10.71945440       1.42663280       2.00627478       12      -0.00033139       0.00025605       0.00049892      -0.00033139       0.00025605       0.00049892
K        0.00000000      -0.00000000      19.00651549       13      -0.00000000       0.00000000      -0.00012326      -0.00000000       0.00000000      -0.00012326
K       -0.00000000       0.00000000      11.41311294       13       0.00000000      -0.00000000       0.00012326       0.00000000      -0.00000000       0.00012326
K        0.00000000      -0.00000000       3.79670127       13      -0.00000000       0.00000000      -0.00012326      -0.00000000       0.00000000      -0.00012326
K       -0.00000000       0.00000000      26.62292715       13       0.00000000      -0.00000000       0.00012326       0.00000000      -0.00000000       0.00012326
